Ir16 O32                                
   1.00000000000000     
     6.3787260000000003    0.0000000000000000    0.0000000000000000
     0.0000000000000000    6.4179779999999997    0.0000000000000000
     0.0000000000000000    0.0000000000000000   38.5078659999999999
   Ir   O 
    16    34
Selective dynamics
Direct
  0.2500000000000000  0.5000000000000000  0.1250000000000000   F   F   F
  0.7500000000000000  0.5000000000000000  0.1250000000000000   F   F   F
  0.2500000000000000  0.0000000000000000  0.0416669999999968   F   F   F
  0.7500000000000000  0.0000000000000000  0.0416669999999968   F   F   F
  0.0000000000000000  0.5000000000000000  0.0416669999999968   F   F   F
  0.5000000000000000  0.5000000000000000  0.0416669999999968   F   F   F
  0.0000000000000000  0.0000000000000000  0.1250000000000000   F   F   F
  0.5000000000000000  0.0000000000000000  0.1250000000000000   F   F   F
  0.2500000000000000  0.5000000000000000  0.2918285511667444   T   T   T
  0.7500000000000000  0.5000000000000000  0.2918285511667444   T   T   T
  0.2500000000000000 -0.0000000000000000  0.2084803741287559   T   T   T
  0.7500000000000000 -0.0000000000000000  0.2084803741287559   T   T   T
  0.0000000000000000  0.5000000000000000  0.2084879477713034   T   T   T
  0.5000000000000000  0.5000000000000000  0.2084879477713034   T   T   T
 -0.0000000000000000 -0.0000000000000000  0.2939439903701719   T   T   T
  0.5000000000000000 -0.0000000000000000  0.2939439903701719   T   T   T
  0.2500000000000000  0.1916080000000022  0.1250000000000000   F   F   F
  0.7500000000000000  0.1916080000000022  0.1250000000000000   F   F   F
  0.2500000000000000  0.6916080000000022  0.0416669999999968   F   F   F
  0.7500000000000000  0.6916080000000022  0.0416669999999968   F   F   F
  0.2500000000000000  0.8083919999999978  0.1250000000000000   F   F   F
  0.7500000000000000  0.8083919999999978  0.1250000000000000   F   F   F
  0.2500000000000000  0.3083919999999978  0.0416669999999968   F   F   F
  0.7500000000000000  0.3083919999999978  0.0416669999999968   F   F   F
  0.0000000000000000  0.5000000000000000  0.0930650000000028   F   F   F
  0.5000000000000000  0.5000000000000000  0.0930650000000028   F   F   F
  0.0000000000000000  0.0000000000000000  0.0097319999999996   F   F   F
  0.5000000000000000  0.0000000000000000  0.0097319999999996   F   F   F
  0.0000000000000000  0.5000000000000000  0.1569349999999972   F   F   F
  0.5000000000000000  0.5000000000000000  0.1569349999999972   F   F   F
  0.0000000000000000  0.0000000000000000  0.0736009999999965   F   F   F
  0.5000000000000000  0.0000000000000000  0.0736009999999965   F   F   F
  0.2500000000000000  0.1909440705750705  0.2905713667007996   T   T   T
  0.7500000000000000  0.1909440705750705  0.2905713667007996   T   T   T
  0.2500000000000000  0.6918877453228560  0.2082619124243905   T   T   T
  0.7500000000000000  0.6918877453228560  0.2082619124243905   T   T   T
  0.2500000000000000  0.8090559294249295  0.2905713667007996   T   T   T
  0.7500000000000000  0.8090559294249295  0.2905713667007996   T   T   T
  0.2500000000000000  0.3081122546771440  0.2082619124243905   T   T   T
  0.7500000000000000  0.3081122546771440  0.2082619124243905   T   T   T
 -0.0000000000000000  0.5000000000000000  0.2595394018771112   T   T   T
  0.5000000000000000  0.5000000000000000  0.2595394018771112   T   T   T
  0.0000000000000000 -0.0000000000000000  0.1765546357504799   T   T   T
  0.5000000000000000 -0.0000000000000000  0.1765546357504799   T   T   T
 -0.0000000000000000  0.5000000000000000  0.3221920057856695   T   T   T
  0.5000000000000000  0.5000000000000000  0.3221920057856695   T   T   T
  0.0000000000000000 -0.0000000000000000  0.2405481428749626   T   T   T
  0.5000000000000000 -0.0000000000000000  0.2405481428749626   T   T   T
  0.0000000000000000 -0.0000000000000000  0.3404040659534912   T   T   T
  0.5000000000000000 -0.0000000000000000  0.3404040659534912   T   T   T
 
  0.00000000E+00  0.00000000E+00  0.00000000E+00
  0.00000000E+00  0.00000000E+00  0.00000000E+00
  0.00000000E+00  0.00000000E+00  0.00000000E+00
  0.00000000E+00  0.00000000E+00  0.00000000E+00
  0.00000000E+00  0.00000000E+00  0.00000000E+00
  0.00000000E+00  0.00000000E+00  0.00000000E+00
  0.00000000E+00  0.00000000E+00  0.00000000E+00
  0.00000000E+00  0.00000000E+00  0.00000000E+00
  0.00000000E+00  0.00000000E+00  0.00000000E+00
  0.00000000E+00  0.00000000E+00  0.00000000E+00
  0.00000000E+00  0.00000000E+00  0.00000000E+00
  0.00000000E+00  0.00000000E+00  0.00000000E+00
  0.00000000E+00  0.00000000E+00  0.00000000E+00
  0.00000000E+00  0.00000000E+00  0.00000000E+00
  0.00000000E+00  0.00000000E+00  0.00000000E+00
  0.00000000E+00  0.00000000E+00  0.00000000E+00
  0.00000000E+00  0.00000000E+00  0.00000000E+00
  0.00000000E+00  0.00000000E+00  0.00000000E+00
  0.00000000E+00  0.00000000E+00  0.00000000E+00
  0.00000000E+00  0.00000000E+00  0.00000000E+00
  0.00000000E+00  0.00000000E+00  0.00000000E+00
  0.00000000E+00  0.00000000E+00  0.00000000E+00
  0.00000000E+00  0.00000000E+00  0.00000000E+00
  0.00000000E+00  0.00000000E+00  0.00000000E+00
  0.00000000E+00  0.00000000E+00  0.00000000E+00
  0.00000000E+00  0.00000000E+00  0.00000000E+00
  0.00000000E+00  0.00000000E+00  0.00000000E+00
  0.00000000E+00  0.00000000E+00  0.00000000E+00
  0.00000000E+00  0.00000000E+00  0.00000000E+00
  0.00000000E+00  0.00000000E+00  0.00000000E+00
  0.00000000E+00  0.00000000E+00  0.00000000E+00
  0.00000000E+00  0.00000000E+00  0.00000000E+00
  0.00000000E+00  0.00000000E+00  0.00000000E+00
  0.00000000E+00  0.00000000E+00  0.00000000E+00
  0.00000000E+00  0.00000000E+00  0.00000000E+00
  0.00000000E+00  0.00000000E+00  0.00000000E+00
  0.00000000E+00  0.00000000E+00  0.00000000E+00
  0.00000000E+00  0.00000000E+00  0.00000000E+00
  0.00000000E+00  0.00000000E+00  0.00000000E+00
  0.00000000E+00  0.00000000E+00  0.00000000E+00
  0.00000000E+00  0.00000000E+00  0.00000000E+00
  0.00000000E+00  0.00000000E+00  0.00000000E+00
  0.00000000E+00  0.00000000E+00  0.00000000E+00
  0.00000000E+00  0.00000000E+00  0.00000000E+00
  0.00000000E+00  0.00000000E+00  0.00000000E+00
  0.00000000E+00  0.00000000E+00  0.00000000E+00
  0.00000000E+00  0.00000000E+00  0.00000000E+00
  0.00000000E+00  0.00000000E+00  0.00000000E+00
  0.00000000E+00  0.00000000E+00  0.00000000E+00
  0.00000000E+00  0.00000000E+00  0.00000000E+00
