Ir16 O32                                
   1.00000000000000     
     6.3787260000000003    0.0000000000000000    0.0000000000000000
     0.0000000000000000    6.4179779999999997    0.0000000000000000
     0.0000000000000000    0.0000000000000000   38.5078659999999999
   Ir   O 
    16    34
Selective dynamics
Direct
  0.2500000000000000  0.5000000000000000  0.1250000000000000   F   F   F
  0.7500000000000000  0.5000000000000000  0.1250000000000000   F   F   F
  0.2500000000000000  0.0000000000000000  0.0416669999999968   F   F   F
  0.7500000000000000  0.0000000000000000  0.0416669999999968   F   F   F
  0.0000000000000000  0.5000000000000000  0.0416669999999968   F   F   F
  0.5000000000000000  0.5000000000000000  0.0416669999999968   F   F   F
  0.0000000000000000  0.0000000000000000  0.1250000000000000   F   F   F
  0.5000000000000000  0.0000000000000000  0.1250000000000000   F   F   F
  0.2500000000000000  0.5000000000000000  0.2917528902547653   T   T   T
  0.7500000000000000  0.5000000000000000  0.2917528902547653   T   T   T
  0.2500000000000000  0.0000000000000000  0.2087115582233059   T   T   T
  0.7500000000000000  0.0000000000000000  0.2087115582233059   T   T   T
  0.0000000000000000  0.5000000000000000  0.2084586969132047   T   T   T
  0.5000000000000000  0.5000000000000000  0.2084586969132047   T   T   T
 -0.0000000000000000  0.0000000000000000  0.2937912434664444   T   T   T
  0.5000000000000000  0.0000000000000000  0.2937912434664444   T   T   T
  0.2500000000000000  0.1916080000000022  0.1250000000000000   F   F   F
  0.7500000000000000  0.1916080000000022  0.1250000000000000   F   F   F
  0.2500000000000000  0.6916080000000022  0.0416669999999968   F   F   F
  0.7500000000000000  0.6916080000000022  0.0416669999999968   F   F   F
  0.2500000000000000  0.8083919999999978  0.1250000000000000   F   F   F
  0.7500000000000000  0.8083919999999978  0.1250000000000000   F   F   F
  0.2500000000000000  0.3083919999999978  0.0416669999999968   F   F   F
  0.7500000000000000  0.3083919999999978  0.0416669999999968   F   F   F
  0.0000000000000000  0.5000000000000000  0.0930650000000028   F   F   F
  0.5000000000000000  0.5000000000000000  0.0930650000000028   F   F   F
  0.0000000000000000  0.0000000000000000  0.0097319999999996   F   F   F
  0.5000000000000000  0.0000000000000000  0.0097319999999996   F   F   F
  0.0000000000000000  0.5000000000000000  0.1569349999999972   F   F   F
  0.5000000000000000  0.5000000000000000  0.1569349999999972   F   F   F
  0.0000000000000000  0.0000000000000000  0.0736009999999965   F   F   F
  0.5000000000000000  0.0000000000000000  0.0736009999999965   F   F   F
  0.2500000000000000  0.1906635110714007  0.2903037322336880   T   T   T
  0.7500000000000000  0.1906635110714007  0.2903037322336880   T   T   T
  0.2500000000000000  0.6914826499932288  0.2083171308550260   T   T   T
  0.7500000000000000  0.6914826499932288  0.2083171308550260   T   T   T
  0.2500000000000000  0.8093364889285993  0.2903037322336880   T   T   T
  0.7500000000000000  0.8093364889285993  0.2903037322336880   T   T   T
  0.2500000000000000  0.3085173500067715  0.2083171308550260   T   T   T
  0.7500000000000000  0.3085173500067715  0.2083171308550260   T   T   T
  0.0000000000000000  0.5000000000000000  0.2594788076843120   T   T   T
  0.5000000000000000  0.5000000000000000  0.2594788076843120   T   T   T
 -0.0000000000000000  0.0000000000000000  0.1767389855144572   T   T   T
  0.5000000000000000  0.0000000000000000  0.1767389855144572   T   T   T
 -0.0000000000000000  0.5000000000000000  0.3221335237642313   T   T   T
  0.5000000000000000  0.5000000000000000  0.3221335237642313   T   T   T
 -0.0000000000000000  0.0000000000000000  0.2409030928474966   T   T   T
  0.5000000000000000  0.0000000000000000  0.2409030928474966   T   T   T
  0.0000000000000000  0.0000000000000000  0.3399407342118033   T   T   T
  0.5000000000000000  0.0000000000000000  0.3399407342118033   T   T   T
 
  0.00000000E+00  0.00000000E+00  0.00000000E+00
  0.00000000E+00  0.00000000E+00  0.00000000E+00
  0.00000000E+00  0.00000000E+00  0.00000000E+00
  0.00000000E+00  0.00000000E+00  0.00000000E+00
  0.00000000E+00  0.00000000E+00  0.00000000E+00
  0.00000000E+00  0.00000000E+00  0.00000000E+00
  0.00000000E+00  0.00000000E+00  0.00000000E+00
  0.00000000E+00  0.00000000E+00  0.00000000E+00
  0.00000000E+00  0.00000000E+00  0.00000000E+00
  0.00000000E+00  0.00000000E+00  0.00000000E+00
  0.00000000E+00  0.00000000E+00  0.00000000E+00
  0.00000000E+00  0.00000000E+00  0.00000000E+00
  0.00000000E+00  0.00000000E+00  0.00000000E+00
  0.00000000E+00  0.00000000E+00  0.00000000E+00
  0.00000000E+00  0.00000000E+00  0.00000000E+00
  0.00000000E+00  0.00000000E+00  0.00000000E+00
  0.00000000E+00  0.00000000E+00  0.00000000E+00
  0.00000000E+00  0.00000000E+00  0.00000000E+00
  0.00000000E+00  0.00000000E+00  0.00000000E+00
  0.00000000E+00  0.00000000E+00  0.00000000E+00
  0.00000000E+00  0.00000000E+00  0.00000000E+00
  0.00000000E+00  0.00000000E+00  0.00000000E+00
  0.00000000E+00  0.00000000E+00  0.00000000E+00
  0.00000000E+00  0.00000000E+00  0.00000000E+00
  0.00000000E+00  0.00000000E+00  0.00000000E+00
  0.00000000E+00  0.00000000E+00  0.00000000E+00
  0.00000000E+00  0.00000000E+00  0.00000000E+00
  0.00000000E+00  0.00000000E+00  0.00000000E+00
  0.00000000E+00  0.00000000E+00  0.00000000E+00
  0.00000000E+00  0.00000000E+00  0.00000000E+00
  0.00000000E+00  0.00000000E+00  0.00000000E+00
  0.00000000E+00  0.00000000E+00  0.00000000E+00
  0.00000000E+00  0.00000000E+00  0.00000000E+00
  0.00000000E+00  0.00000000E+00  0.00000000E+00
  0.00000000E+00  0.00000000E+00  0.00000000E+00
  0.00000000E+00  0.00000000E+00  0.00000000E+00
  0.00000000E+00  0.00000000E+00  0.00000000E+00
  0.00000000E+00  0.00000000E+00  0.00000000E+00
  0.00000000E+00  0.00000000E+00  0.00000000E+00
  0.00000000E+00  0.00000000E+00  0.00000000E+00
  0.00000000E+00  0.00000000E+00  0.00000000E+00
  0.00000000E+00  0.00000000E+00  0.00000000E+00
  0.00000000E+00  0.00000000E+00  0.00000000E+00
  0.00000000E+00  0.00000000E+00  0.00000000E+00
  0.00000000E+00  0.00000000E+00  0.00000000E+00
  0.00000000E+00  0.00000000E+00  0.00000000E+00
  0.00000000E+00  0.00000000E+00  0.00000000E+00
  0.00000000E+00  0.00000000E+00  0.00000000E+00
  0.00000000E+00  0.00000000E+00  0.00000000E+00
  0.00000000E+00  0.00000000E+00  0.00000000E+00
