 running on   32 total cores
 distrk:  each k-point on   32 cores,    1 groups
 distr:  one band on    8 cores,    4 groups
 using from now: INCAR     
 vasp.5.4.4.18Apr17-6-g9f103f2a35 (build Jul 24 2019 14:16:20) complex          
  
 POSCAR found type information on POSCAR  Ir O 
 POSCAR found :  2 types and      50 ions
 scaLAPACK is switched off
 LDA part: xc-table for Pade appr. of Perdew
 POSCAR, INCAR and KPOINTS ok, starting setup
 FFT: planning ...
 WAVECAR not read
 entering main loop
       N       E                     dE             d eps       ncg     rms          rms(c)
DAV:   1     0.425905697532E+04    0.42591E+04   -0.16100E+05  3776   0.160E+03
DAV:   2     0.506598923562E+03   -0.37525E+04   -0.34618E+04  3928   0.429E+02
DAV:   3    -0.356388891962E+03   -0.86299E+03   -0.83690E+03  5416   0.198E+02
DAV:   4    -0.416548002820E+03   -0.60159E+02   -0.57140E+02  4784   0.508E+01
DAV:   5    -0.418809161593E+03   -0.22612E+01   -0.22152E+01  4736   0.102E+01    0.129E+02
RMM:   6    -0.450157222843E+03   -0.31348E+02   -0.50618E+02  4108   0.492E+01    0.144E+02
RMM:   7    -0.861554933924E+03   -0.41140E+03   -0.64557E+02  5290   0.425E+01    0.243E+02
RMM:   8    -0.894225924857E+03   -0.32671E+02   -0.30067E+02  5514   0.232E+01    0.266E+02
RMM:   9    -0.573218846738E+03    0.32101E+03   -0.12788E+02  4633   0.155E+01    0.234E+02
RMM:  10    -0.798872165228E+03   -0.22565E+03   -0.21878E+02  4052   0.273E+01    0.274E+02
RMM:  11    -0.736371932979E+03    0.62500E+02   -0.59448E+01  5102   0.948E+00    0.274E+02
RMM:  12    -0.699650501768E+03    0.36721E+02   -0.99011E+01  4662   0.129E+01    0.296E+02
RMM:  13    -0.424717616188E+03    0.27493E+03   -0.51279E+02  4534   0.377E+01    0.108E+02
RMM:  14    -0.527453749313E+03   -0.10274E+03   -0.18113E+02  4923   0.210E+01    0.131E+02
RMM:  15    -0.561124143342E+03   -0.33670E+02   -0.17866E+02  4776   0.214E+01    0.132E+02
RMM:  16    -0.591653164154E+03   -0.30529E+02   -0.20476E+02  5543   0.199E+01    0.134E+02
RMM:  17    -0.611157602375E+03   -0.19504E+02   -0.11249E+02  5899   0.123E+01    0.131E+02
RMM:  18    -0.608901833919E+03    0.22558E+01   -0.57312E+01  5229   0.888E+00    0.140E+02
RMM:  19    -0.612926138725E+03   -0.40243E+01   -0.63019E+01  5430   0.746E+00    0.147E+02
RMM:  20    -0.589948269470E+03    0.22978E+02   -0.66712E+01  4924   0.967E+00    0.156E+02
RMM:  21    -0.602996503180E+03   -0.13048E+02   -0.62700E+01  4891   0.800E+00    0.162E+02
RMM:  22    -0.608697814524E+03   -0.57013E+01   -0.48322E+01  5321   0.513E+00    0.166E+02
RMM:  23    -0.613234391548E+03   -0.45366E+01   -0.36153E+01  5304   0.374E+00    0.166E+02
RMM:  24    -0.612816923306E+03    0.41747E+00   -0.29037E+01  4906   0.378E+00    0.165E+02
RMM:  25    -0.603968181126E+03    0.88487E+01   -0.37100E+01  4983   0.359E+00    0.165E+02
RMM:  26    -0.570698675030E+03    0.33270E+02   -0.18422E+01  4388   0.572E+00    0.168E+02
RMM:  27    -0.572378629103E+03   -0.16800E+01   -0.61412E+00  4584   0.236E+00    0.169E+02
RMM:  28    -0.583753967286E+03   -0.11375E+02   -0.79811E+00  4355   0.164E+00    0.174E+02
RMM:  29    -0.471015655972E+03    0.11274E+03   -0.37678E+01  4117   0.107E+01    0.145E+02
RMM:  30    -0.446963009540E+03    0.24053E+02   -0.11684E+01  4532   0.544E+00    0.130E+02
RMM:  31    -0.432143266147E+03    0.14820E+02   -0.57718E+00  4408   0.363E+00    0.120E+02
RMM:  32    -0.428401792087E+03    0.37415E+01   -0.84442E+00  4092   0.556E+00    0.105E+02
RMM:  33    -0.411580241213E+03    0.16822E+02   -0.42126E+00  3988   0.370E+00    0.112E+02
RMM:  34    -0.412663403030E+03   -0.10832E+01   -0.87721E-01  4086   0.190E+00    0.106E+02
RMM:  35    -0.406829365725E+03    0.58340E+01   -0.81771E-01  4585   0.152E+00    0.103E+02
RMM:  36    -0.400309999424E+03    0.65194E+01   -0.42984E-01  4396   0.112E+00    0.100E+02
RMM:  37    -0.399063771885E+03    0.12462E+01   -0.10230E-01  4706   0.532E-01    0.100E+02
RMM:  38    -0.396097045438E+03    0.29667E+01   -0.15665E-01  4367   0.649E-01    0.991E+01
RMM:  39    -0.397316646105E+03   -0.12196E+01   -0.11279E+00  3903   0.184E+00    0.101E+02
RMM:  40    -0.394177643873E+03    0.31390E+01   -0.29462E-01  4192   0.111E+00    0.991E+01
RMM:  41    -0.395885628953E+03   -0.17080E+01   -0.71339E-01  4028   0.132E+00    0.107E+02
RMM:  42    -0.390801765957E+03    0.50839E+01   -0.72023E-01  3870   0.164E+00    0.986E+01
RMM:  43    -0.380576155855E+03    0.10226E+02   -0.13773E+00  4068   0.193E+00    0.908E+01
RMM:  44    -0.378075225922E+03    0.25009E+01   -0.80360E-01  3929   0.190E+00    0.885E+01
RMM:  45    -0.372210387073E+03    0.58648E+01   -0.22012E+00  3922   0.245E+00    0.849E+01
RMM:  46    -0.371374782803E+03    0.83560E+00   -0.33286E-01  4029   0.144E+00    0.842E+01
RMM:  47    -0.365643726334E+03    0.57311E+01   -0.17030E+00  4035   0.223E+00    0.782E+01
RMM:  48    -0.365828978402E+03   -0.18525E+00   -0.42738E-01  4014   0.130E+00    0.777E+01
RMM:  49    -0.360082518939E+03    0.57465E+01   -0.13218E+00  4065   0.199E+00    0.723E+01
RMM:  50    -0.355134583560E+03    0.49479E+01   -0.99034E-01  4321   0.185E+00    0.659E+01
RMM:  51    -0.391830526816E+03   -0.36696E+02   -0.30071E+01  3957   0.987E+00    0.961E+01
RMM:  52    -0.390266732081E+03    0.15638E+01   -0.40247E+00  4597   0.369E+00    0.945E+01
RMM:  53    -0.391775615224E+03   -0.15089E+01   -0.72614E-01  4974   0.899E-01    0.953E+01
RMM:  54    -0.386855216317E+03    0.49204E+01   -0.29263E-01  4006   0.810E-01    0.929E+01
RMM:  55    -0.389152737366E+03   -0.22975E+01   -0.11075E-01  4181   0.391E-01    0.935E+01
RMM:  56    -0.376118407233E+03    0.13034E+02   -0.37278E+01  3998   0.112E+01    0.735E+01
RMM:  57    -0.411588797327E+03   -0.35470E+02   -0.28256E+01  4312   0.807E+00    0.115E+02
RMM:  58    -0.415675626486E+03   -0.40868E+01   -0.40469E+00  3947   0.401E+00    0.110E+02
RMM:  59    -0.382904071871E+03    0.32772E+02   -0.54576E+00  3864   0.432E+00    0.100E+02
RMM:  60    -0.385228510541E+03   -0.23244E+01   -0.51460E-01  4097   0.182E+00    0.979E+01
RMM:  61    -0.398991630875E+03   -0.13763E+02   -0.20841E+01  3969   0.824E+00    0.982E+01
RMM:  62    -0.389616414109E+03    0.93752E+01   -0.39275E+00  4076   0.409E+00    0.101E+02
RMM:  63    -0.381536454623E+03    0.80800E+01   -0.91992E+00  4097   0.555E+00    0.100E+02
RMM:  64    -0.377596395397E+03    0.39401E+01   -0.33597E+00  4589   0.288E+00    0.980E+01
RMM:  65    -0.380946196991E+03   -0.33498E+01   -0.51757E-01  4962   0.937E-01    0.103E+02
RMM:  66    -0.383187521384E+03   -0.22413E+01   -0.11819E+01  4204   0.518E+00    0.883E+01
RMM:  67    -0.364683275691E+03    0.18504E+02   -0.63819E+00  4178   0.427E+00    0.742E+01
RMM:  68    -0.378990991961E+03   -0.14308E+02   -0.42028E+00  4562   0.349E+00    0.852E+01
RMM:  69    -0.395818579098E+03   -0.16828E+02   -0.11879E+01  4236   0.503E+00    0.103E+02
RMM:  70    -0.395138396419E+03    0.68018E+00   -0.36174E+00  4671   0.211E+00    0.102E+02
RMM:  71    -0.369537637741E+03    0.25601E+02   -0.81343E+00  3895   0.521E+00    0.742E+01
RMM:  72    -0.365578710972E+03    0.39589E+01   -0.14161E+00  4398   0.246E+00    0.699E+01
RMM:  73    -0.358553022445E+03    0.70257E+01   -0.99692E-01  4194   0.188E+00    0.612E+01
RMM:  74    -0.358485924545E+03    0.67098E-01   -0.12200E-01  4571   0.725E-01    0.614E+01
RMM:  75    -0.360661359026E+03   -0.21754E+01   -0.14219E-01  4191   0.697E-01    0.636E+01
RMM:  76    -0.372580278605E+03   -0.11919E+02   -0.17014E+00  3973   0.241E+00    0.840E+01
RMM:  77    -0.368802506336E+03    0.37778E+01   -0.84824E-01  4058   0.185E+00    0.780E+01
RMM:  78    -0.372138386319E+03   -0.33359E+01   -0.22385E-01  4327   0.969E-01    0.844E+01
RMM:  79    -0.372150676051E+03   -0.12290E-01   -0.35239E-02  4819   0.285E-01    0.846E+01
RMM:  80    -0.373559075341E+03   -0.14084E+01   -0.27699E-02  4104   0.328E-01    0.871E+01
RMM:  81    -0.382946687300E+03   -0.93876E+01   -0.20779E+00  4089   0.236E+00    0.104E+02
RMM:  82    -0.381137675236E+03    0.18090E+01   -0.19824E-01  4335   0.956E-01    0.101E+02
RMM:  83    -0.375173071997E+03    0.59646E+01   -0.33852E-01  3977   0.107E+00    0.867E+01
RMM:  84    -0.371185783066E+03    0.39873E+01   -0.14227E-01  4280   0.752E-01    0.793E+01
RMM:  85    -0.367320767398E+03    0.38650E+01   -0.10781E-01  4077   0.627E-01    0.741E+01
RMM:  86    -0.357425367045E+03    0.98954E+01   -0.47950E+00  4084   0.396E+00    0.667E+01
RMM:  87    -0.359998896545E+03   -0.25735E+01   -0.67597E-01  4306   0.171E+00    0.674E+01
RMM:  88    -0.363094895820E+03   -0.30960E+01   -0.33122E-01  4280   0.948E-01    0.701E+01
RMM:  89    -0.361317320253E+03    0.17776E+01   -0.30609E-02  4043   0.387E-01    0.682E+01
RMM:  90    -0.360382910268E+03    0.93441E+00   -0.15671E-01  3948   0.629E-01    0.687E+01
RMM:  91    -0.379035419251E+03   -0.18653E+02   -0.28146E+00  3936   0.277E+00    0.953E+01
RMM:  92    -0.379139078445E+03   -0.10366E+00   -0.32639E-01  4102   0.135E+00    0.957E+01
RMM:  93    -0.378023520055E+03    0.11156E+01   -0.58712E-02  4217   0.421E-01    0.936E+01
RMM:  94    -0.379311932808E+03   -0.12884E+01   -0.20757E-02  4434   0.214E-01    0.951E+01
RMM:  95    -0.381381791798E+03   -0.20699E+01   -0.98171E-01  3859   0.178E+00    0.103E+02
RMM:  96    -0.353474445446E+03    0.27907E+02   -0.46814E+00  3937   0.374E+00    0.601E+01
RMM:  97    -0.350544385820E+03    0.29301E+01   -0.53213E-01  4006   0.177E+00    0.563E+01
RMM:  98    -0.350298884853E+03    0.24550E+00   -0.35463E-01  4340   0.981E-01    0.579E+01
RMM:  99    -0.347572898307E+03    0.27260E+01   -0.22332E-01  4199   0.886E-01    0.539E+01
RMM: 100    -0.347646054809E+03   -0.73157E-01   -0.24214E-02  4657   0.317E-01    0.544E+01
RMM: 101    -0.348317444973E+03   -0.67139E+00   -0.33168E+00  4007   0.341E+00    0.545E+01
RMM: 102    -0.348041722428E+03    0.27572E+00   -0.61518E-01  4389   0.155E+00    0.518E+01
RMM: 103    -0.347196758583E+03    0.84496E+00   -0.91303E-02  4440   0.540E-01    0.505E+01
RMM: 104    -0.347033270141E+03    0.16349E+00   -0.17101E-01  3851   0.907E-01    0.500E+01
RMM: 105    -0.345297398910E+03    0.17359E+01   -0.20306E-01  4032   0.734E-01    0.485E+01
RMM: 106    -0.344064651535E+03    0.12327E+01   -0.10994E+00  4104   0.184E+00    0.470E+01
RMM: 107    -0.344086502895E+03   -0.21851E-01   -0.13121E-01  4537   0.728E-01    0.471E+01
RMM: 108    -0.344495887465E+03   -0.40938E+00   -0.18025E-01  4052   0.774E-01    0.482E+01
RMM: 109    -0.344269235441E+03    0.22665E+00   -0.14571E-01  3781   0.829E-01    0.485E+01
RMM: 110    -0.344850356153E+03   -0.58112E+00   -0.24421E-01  3843   0.955E-01    0.493E+01
RMM: 111    -0.346643050929E+03   -0.17927E+01   -0.84558E-01  3937   0.180E+00    0.537E+01
RMM: 112    -0.346600179533E+03    0.42871E-01   -0.85780E-02  4218   0.780E-01    0.533E+01
RMM: 113    -0.345495252582E+03    0.11049E+01   -0.15429E-01  3881   0.845E-01    0.502E+01
RMM: 114    -0.346101990571E+03   -0.60674E+00   -0.11593E+00  3908   0.199E+00    0.483E+01
RMM: 115    -0.345061582209E+03    0.10404E+01   -0.48030E-01  3819   0.149E+00    0.472E+01
RMM: 116    -0.345529852483E+03   -0.46827E+00   -0.38136E+00  4032   0.415E+00    0.435E+01
RMM: 117    -0.345590596282E+03   -0.60744E-01   -0.43889E-01  4651   0.132E+00    0.438E+01
RMM: 118    -0.345416158237E+03    0.17444E+00   -0.62435E-02  4075   0.510E-01    0.435E+01
RMM: 119    -0.345343851887E+03    0.72306E-01   -0.13419E-01  4086   0.777E-01    0.433E+01
RMM: 120    -0.345120152555E+03    0.22370E+00   -0.29834E-01  4294   0.110E+00    0.423E+01
RMM: 121    -0.345572531762E+03   -0.45238E+00   -0.17520E+00  4058   0.280E+00    0.420E+01
RMM: 122    -0.346190353781E+03   -0.61782E+00   -0.12737E+00  3974   0.209E+00    0.420E+01
RMM: 123    -0.346949826716E+03   -0.75947E+00   -0.72341E-01  4255   0.157E+00    0.435E+01
RMM: 124    -0.345723405166E+03    0.12264E+01   -0.38537E-01  4065   0.116E+00    0.463E+01
RMM: 125    -0.346089465825E+03   -0.36606E+00   -0.55824E-02  4134   0.576E-01    0.483E+01
RMM: 126    -0.344352619413E+03    0.17368E+01   -0.26275E+00  3875   0.309E+00    0.400E+01
RMM: 127    -0.344336069387E+03    0.16550E-01   -0.39508E-01  4228   0.142E+00    0.397E+01
RMM: 128    -0.344934597938E+03   -0.59853E+00   -0.22633E-01  4214   0.902E-01    0.409E+01
RMM: 129    -0.346203414604E+03   -0.12688E+01   -0.54359E-01  3965   0.145E+00    0.420E+01
RMM: 130    -0.346278904357E+03   -0.75490E-01   -0.58251E-02  4206   0.592E-01    0.422E+01
RMM: 131    -0.347648150971E+03   -0.13692E+01   -0.41970E+00  4132   0.370E+00    0.511E+01
RMM: 132    -0.346371092403E+03    0.12771E+01   -0.11022E+00  4034   0.225E+00    0.450E+01
RMM: 133    -0.345069574897E+03    0.13015E+01   -0.75406E-01  4108   0.168E+00    0.456E+01
RMM: 134    -0.344902382450E+03    0.16719E+00   -0.14008E-01  4397   0.760E-01    0.453E+01
RMM: 135    -0.344743745889E+03    0.15864E+00   -0.56074E-02  3881   0.490E-01    0.457E+01
RMM: 136    -0.359929346094E+03   -0.15186E+02   -0.16468E+01  3952   0.729E+00    0.709E+01
RMM: 137    -0.358140895174E+03    0.17885E+01   -0.25478E+00  4179   0.360E+00    0.668E+01
RMM: 138    -0.357596221832E+03    0.54467E+00   -0.22997E+00  4138   0.268E+00    0.572E+01
RMM: 139    -0.356280393602E+03    0.13158E+01   -0.34818E-01  3956   0.148E+00    0.567E+01
RMM: 140    -0.361271275815E+03   -0.49909E+01   -0.21850E+00  4210   0.272E+00    0.639E+01
RMM: 141    -0.384544063788E+03   -0.23273E+02   -0.12784E+01  4047   0.628E+00    0.105E+02
RMM: 142    -0.371044780297E+03    0.13499E+02   -0.18745E+00  3952   0.355E+00    0.865E+01
RMM: 143    -0.382504684628E+03   -0.11460E+02   -0.68703E+00  4099   0.499E+00    0.942E+01
RMM: 144    -0.391384944181E+03   -0.88803E+01   -0.73651E+00  4279   0.523E+00    0.952E+01
RMM: 145    -0.389432180310E+03    0.19528E+01   -0.20149E+00  3949   0.305E+00    0.962E+01
RMM: 146    -0.376298716351E+03    0.13133E+02   -0.40489E+00  4034   0.414E+00    0.763E+01
RMM: 147    -0.360372294300E+03    0.15926E+02   -0.15997E+00  3906   0.268E+00    0.605E+01
RMM: 148    -0.355045082732E+03    0.53272E+01   -0.78197E-01  4043   0.185E+00    0.544E+01
RMM: 149    -0.354236399361E+03    0.80868E+00   -0.20559E-01  4548   0.871E-01    0.534E+01
RMM: 150    -0.353461535690E+03    0.77486E+00   -0.85191E-02  4115   0.551E-01
   1 F= -.35346154E+03 E0= -.35345011E+03  d E =-.353462E+03
 curvature:   0.00 expect dE= 0.000E+00 dE for cont linesearch  0.000E+00
 trial: gam= 0.00000 g(F)=  0.695E+00 g(S)=  0.000E+00 ort = 0.000E+00 (trialstep = 0.100E+01)
 search vector abs. value=  0.695E+00
 bond charge predicted
       N       E                     dE             d eps       ncg     rms          rms(c)
DAV:   1    -0.351468751687E+03    0.27676E+01   -0.35895E+02  3800   0.417E+01    0.543E+01
RMM:   2    -0.114585244662E+04   -0.79438E+03   -0.74799E+02  5352   0.437E+01    0.202E+02
RMM:   3    -0.621303100679E+03    0.52455E+03   -0.12396E+02  4603   0.213E+01    0.134E+02
RMM:   4    -0.496602995656E+03    0.12470E+03   -0.73420E+01  3944   0.168E+01    0.101E+02
RMM:   5    -0.384479614490E+03    0.11212E+03   -0.70693E+01  4252   0.130E+01    0.101E+02
RMM:   6    -0.393908247156E+03   -0.94286E+01   -0.63791E+00  4395   0.529E+00    0.112E+02
RMM:   7    -0.383970069672E+03    0.99382E+01   -0.52886E+00  4204   0.390E+00    0.100E+02
RMM:   8    -0.370942108233E+03    0.13028E+02   -0.41131E+00  4068   0.367E+00    0.902E+01
RMM:   9    -0.380011878222E+03   -0.90698E+01   -0.76371E+00  3963   0.527E+00    0.107E+02
RMM:  10    -0.367537214500E+03    0.12475E+02   -0.25394E+00  4033   0.319E+00    0.746E+01
RMM:  11    -0.350829159122E+03    0.16708E+02   -0.18478E+01  4005   0.794E+00    0.380E+01
RMM:  12    -0.348484997172E+03    0.23442E+01   -0.51786E+00  4119   0.495E+00    0.401E+01
RMM:  13    -0.347426451502E+03    0.10585E+01   -0.11959E+00  4620   0.182E+00    0.356E+01
RMM:  14    -0.348789167028E+03   -0.13627E+01   -0.34625E-01  3865   0.132E+00    0.386E+01
RMM:  15    -0.352660319298E+03   -0.38712E+01   -0.44599E+00  4026   0.364E+00    0.389E+01
RMM:  16    -0.351912503225E+03    0.74782E+00   -0.53478E-01  4293   0.173E+00    0.381E+01
RMM:  17    -0.351240555807E+03    0.67195E+00   -0.17036E-01  4590   0.679E-01    0.359E+01
RMM:  18    -0.352034201799E+03   -0.79365E+00   -0.35486E-02  4743   0.285E-01    0.365E+01
RMM:  19    -0.351715181541E+03    0.31902E+00   -0.54940E-02  3883   0.483E-01    0.383E+01
RMM:  20    -0.353574190018E+03   -0.18590E+01   -0.11227E+00  4011   0.208E+00    0.493E+01
RMM:  21    -0.354743851019E+03   -0.11697E+01   -0.15678E-01  3907   0.853E-01    0.444E+01
RMM:  22    -0.357018046447E+03   -0.22742E+01   -0.26169E-01  4015   0.965E-01    0.519E+01
RMM:  23    -0.356650356249E+03    0.36769E+00   -0.44090E-02  4525   0.364E-01    0.509E+01
RMM:  24    -0.357861709588E+03   -0.12114E+01   -0.94786E-02  4270   0.484E-01    0.529E+01
RMM:  25    -0.357938094528E+03   -0.76385E-01   -0.17725E-01  3837   0.878E-01    0.547E+01
RMM:  26    -0.357830367525E+03    0.10773E+00   -0.20290E-02  4119   0.309E-01    0.548E+01
RMM:  27    -0.356373581351E+03    0.14568E+01   -0.22285E-01  3915   0.943E-01    0.508E+01
RMM:  28    -0.355381298400E+03    0.99228E+00   -0.31463E+00  3934   0.362E+00    0.420E+01
RMM:  29    -0.354638321839E+03    0.74298E+00   -0.93317E-01  4474   0.190E+00    0.422E+01
RMM:  30    -0.353423546885E+03    0.12148E+01   -0.39285E-01  4519   0.103E+00    0.413E+01
RMM:  31    -0.354558789724E+03   -0.11352E+01   -0.14032E-01  4310   0.611E-01    0.431E+01
RMM:  32    -0.354820308851E+03   -0.26152E+00   -0.26050E-02  4309   0.320E-01    0.435E+01
RMM:  33    -0.355535770465E+03   -0.71546E+00   -0.46101E-02  3952   0.410E-01    0.448E+01
RMM:  34    -0.355165929374E+03    0.36984E+00   -0.49039E-02  4192   0.394E-01    0.441E+01
RMM:  35    -0.353140529444E+03    0.20254E+01   -0.58455E-01  3990   0.144E+00    0.436E+01
RMM:  36    -0.351740573662E+03    0.14000E+01   -0.95745E-01  4214   0.176E+00    0.440E+01
RMM:  37    -0.352228654213E+03   -0.48808E+00   -0.11592E-01  4797   0.560E-01    0.442E+01
RMM:  38    -0.351550794263E+03    0.67786E+00   -0.33521E-01  4114   0.986E-01    0.438E+01
RMM:  39    -0.351410330273E+03    0.14046E+00   -0.42052E-02  4289   0.391E-01    0.432E+01
RMM:  40    -0.350070759373E+03    0.13396E+01   -0.17536E-01  3926   0.857E-01    0.408E+01
RMM:  41    -0.349344418290E+03    0.72634E+00   -0.84745E-02  4356   0.548E-01    0.406E+01
RMM:  42    -0.347227263075E+03    0.21172E+01   -0.17692E-01  3907   0.811E-01    0.358E+01
RMM:  43    -0.347224070762E+03    0.31923E-02   -0.21165E-02  4254   0.336E-01    0.362E+01
RMM:  44    -0.347094267695E+03    0.12980E+00   -0.82464E-03  4262   0.169E-01    0.355E+01
RMM:  45    -0.346684511512E+03    0.40976E+00   -0.58041E-03  4262   0.131E-01    0.344E+01
RMM:  46    -0.346649329867E+03    0.35182E-01   -0.12453E-03  3578   0.651E-02    0.344E+01
RMM:  47    -0.344893492943E+03    0.17558E+01   -0.22156E+00  3854   0.278E+00    0.212E+01
RMM:  48    -0.344884879419E+03    0.86135E-02   -0.27430E-01  4197   0.131E+00    0.214E+01
RMM:  49    -0.344583786255E+03    0.30109E+00   -0.82788E-02  4040   0.546E-01    0.211E+01
RMM:  50    -0.344106326354E+03    0.47746E+00   -0.14987E-01  3976   0.723E-01    0.198E+01
RMM:  51    -0.343085483736E+03    0.10208E+01   -0.68612E-01  3841   0.168E+00    0.164E+01
RMM:  52    -0.348205506687E+03   -0.51200E+01   -0.86967E+00  4090   0.498E+00    0.209E+01
RMM:  53    -0.347851059359E+03    0.35445E+00   -0.12632E+00  4359   0.230E+00    0.181E+01
RMM:  54    -0.347448924793E+03    0.40213E+00   -0.18027E-01  4860   0.663E-01    0.180E+01
RMM:  55    -0.345698608966E+03    0.17503E+01   -0.20240E-01  3859   0.805E-01    0.172E+01
RMM:  56    -0.343726093243E+03    0.19725E+01   -0.44919E-01  4099   0.115E+00    0.151E+01
RMM:  57    -0.343653998570E+03    0.72095E-01   -0.51580E-01  4035   0.147E+00    0.164E+01
RMM:  58    -0.342881507093E+03    0.77249E+00   -0.29269E-01  4098   0.103E+00    0.141E+01
RMM:  59    -0.342171045407E+03    0.71046E+00   -0.18528E-01  4181   0.832E-01    0.114E+01
RMM:  60    -0.341505869807E+03    0.66518E+00   -0.57924E-01  4055   0.129E+00    0.736E+00
RMM:  61    -0.341851379954E+03   -0.34551E+00   -0.20370E-01  3787   0.869E-01    0.843E+00
RMM:  62    -0.341471735846E+03    0.37964E+00   -0.24906E-01  3846   0.104E+00    0.637E+00
RMM:  63    -0.341513961220E+03   -0.42225E-01   -0.28559E-01  4225   0.946E-01    0.743E+00
RMM:  64    -0.341656461253E+03   -0.14250E+00   -0.81322E-02  4552   0.514E-01    0.911E+00
RMM:  65    -0.341619228624E+03    0.37233E-01   -0.73788E-03  4621   0.156E-01    0.881E+00
RMM:  66    -0.341523950402E+03    0.95278E-01   -0.54718E-03  4001   0.136E-01    0.818E+00
RMM:  67    -0.341367952440E+03    0.15600E+00   -0.58880E-01  3998   0.135E+00    0.507E+00
RMM:  68    -0.341282049320E+03    0.85903E-01   -0.58949E-02  4213   0.613E-01    0.427E+00
RMM:  69    -0.341263977927E+03    0.18071E-01   -0.11369E-02  4654   0.184E-01    0.429E+00
RMM:  70    -0.341253578808E+03    0.10399E-01   -0.36898E-03  4107   0.124E-01    0.374E+00
RMM:  71    -0.341215610151E+03    0.37969E-01   -0.12198E-02  4038   0.222E-01    0.310E+00
RMM:  72    -0.341240370639E+03   -0.24760E-01   -0.21933E-02  3779   0.312E-01    0.379E+00
RMM:  73    -0.341136731624E+03    0.10364E+00   -0.30067E-02  3952   0.272E-01    0.259E+00
RMM:  74    -0.341122748494E+03    0.13983E-01   -0.95826E-03  4191   0.185E-01    0.245E+00
RMM:  75    -0.341122338065E+03    0.41043E-03   -0.11736E-03  3398   0.730E-02    0.242E+00
RMM:  76    -0.341127013166E+03   -0.46751E-02   -0.29871E-03  3800   0.994E-02    0.237E+00
RMM:  77    -0.341120899332E+03    0.61138E-02   -0.14061E-03  3552   0.888E-02    0.226E+00
RMM:  78    -0.341113701032E+03    0.71983E-02   -0.14830E-03  3537   0.762E-02    0.210E+00
RMM:  79    -0.341118746871E+03   -0.50458E-02   -0.10340E-03  3293   0.609E-02    0.210E+00
RMM:  80    -0.341120311898E+03   -0.15650E-02   -0.16730E-04  2188   0.339E-02    0.211E+00
RMM:  81    -0.341120339799E+03   -0.27901E-04   -0.52404E-05  2037   0.219E-02
   2 F= -.34112034E+03 E0= -.34110606E+03  d E =0.123412E+02
 trial-energy change:   12.341196  1 .order    0.698603   -0.695334    2.092540
 step:   0.2494(harm=  0.2494)  dis= 0.02776  next Energy=  -353.548249 (dE=-0.867E-01)
 bond charge predicted
       N       E                     dE             d eps       ncg     rms          rms(c)
DAV:   1    -0.341439708042E+03   -0.31940E+00   -0.18445E+02  3744   0.296E+01    0.935E+00
RMM:   2    -0.392684545969E+03   -0.51245E+02   -0.12371E+01  3885   0.683E+00    0.716E+01
RMM:   3    -0.348160473471E+03    0.44524E+02   -0.23906E+00  3765   0.361E+00    0.253E+01
RMM:   4    -0.344814964794E+03    0.33455E+01   -0.15824E+00  4071   0.193E+00    0.212E+01
RMM:   5    -0.346968839100E+03   -0.21539E+01   -0.26197E-01  4129   0.882E-01    0.265E+01
RMM:   6    -0.347027365531E+03   -0.58526E-01   -0.29533E-02  4546   0.288E-01    0.266E+01
RMM:   7    -0.345660671116E+03    0.13667E+01   -0.20121E-01  3994   0.810E-01    0.239E+01
RMM:   8    -0.345691674757E+03   -0.31004E-01   -0.21103E-02  4417   0.308E-01    0.241E+01
RMM:   9    -0.346495285414E+03   -0.80361E+00   -0.33030E-01  4183   0.110E+00    0.275E+01
RMM:  10    -0.346336346567E+03    0.15894E+00   -0.36834E-02  4668   0.349E-01    0.272E+01
RMM:  11    -0.345613261263E+03    0.72309E+00   -0.50303E-02  4018   0.447E-01    0.258E+01
RMM:  12    -0.346288123818E+03   -0.67486E+00   -0.35512E-01  3833   0.126E+00    0.274E+01
RMM:  13    -0.346896713768E+03   -0.60859E+00   -0.37527E+00  3864   0.418E+00    0.418E+01
RMM:  14    -0.343198651583E+03    0.36981E+01   -0.11420E+00  4043   0.198E+00    0.242E+01
RMM:  15    -0.342486802213E+03    0.71185E+00   -0.63190E-01  3912   0.166E+00    0.137E+01
RMM:  16    -0.342245782519E+03    0.24102E+00   -0.13111E-01  4080   0.842E-01    0.106E+01
RMM:  17    -0.342136329664E+03    0.10945E+00   -0.70937E-02  4017   0.556E-01    0.969E+00
RMM:  18    -0.342191435244E+03   -0.55106E-01   -0.35625E-02  3875   0.411E-01    0.110E+01
RMM:  19    -0.342357163477E+03   -0.16573E+00   -0.55512E-02  3897   0.488E-01    0.119E+01
RMM:  20    -0.342460554363E+03   -0.10339E+00   -0.13538E-02  4156   0.261E-01    0.127E+01
RMM:  21    -0.342584422888E+03   -0.12387E+00   -0.13070E-02  4351   0.211E-01    0.135E+01
RMM:  22    -0.342468063064E+03    0.11636E+00   -0.93571E-03  3854   0.211E-01    0.124E+01
RMM:  23    -0.342367635474E+03    0.10043E+00   -0.99773E-03  4004   0.215E-01    0.117E+01
RMM:  24    -0.342759751341E+03   -0.39212E+00   -0.49484E-02  3821   0.464E-01    0.148E+01
RMM:  25    -0.342380154624E+03    0.37960E+00   -0.61214E-02  3800   0.485E-01    0.130E+01
RMM:  26    -0.341690773958E+03    0.68938E+00   -0.58114E-01  3921   0.154E+00    0.438E+00
RMM:  27    -0.341595499179E+03    0.95275E-01   -0.28870E-01  4323   0.110E+00    0.244E+00
RMM:  28    -0.341608735258E+03   -0.13236E-01   -0.24274E-02  4847   0.253E-01    0.334E+00
RMM:  29    -0.341605051202E+03    0.36841E-02   -0.18790E-03  3553   0.662E-02    0.292E+00
RMM:  30    -0.341598084758E+03    0.69664E-02   -0.19298E-03  3835   0.934E-02    0.197E+00
RMM:  31    -0.341590280280E+03    0.78045E-02   -0.22493E-03  3824   0.101E-01    0.123E+00
RMM:  32    -0.341588479401E+03    0.18009E-02   -0.43662E-03  3979   0.131E-01    0.944E-01
RMM:  33    -0.341594453100E+03   -0.59737E-02   -0.27299E-03  3826   0.105E-01    0.131E+00
RMM:  34    -0.341596565955E+03   -0.21129E-02   -0.68771E-04  3104   0.561E-02    0.173E+00
RMM:  35    -0.341590769433E+03    0.57965E-02   -0.74541E-04  3182   0.629E-02    0.124E+00
RMM:  36    -0.341586146975E+03    0.46225E-02   -0.14233E-03  3675   0.761E-02    0.820E-01
RMM:  37    -0.341587035504E+03   -0.88853E-03   -0.33200E-04  2434   0.423E-02    0.949E-01
RMM:  38    -0.341583328244E+03    0.37073E-02   -0.15159E-03  3527   0.792E-02    0.359E-01
RMM:  39    -0.341582770933E+03    0.55731E-03   -0.98909E-04  3412   0.643E-02    0.195E-01
RMM:  40    -0.341582782709E+03   -0.11777E-04   -0.12687E-04  2150   0.277E-02
   3 F= -.34158278E+03 E0= -.34157308E+03  d E =0.118788E+02
 curvature:  -0.12 expect dE=-0.223E+00 dE for cont linesearch -0.797E-01
 ZBRENT: interpolating
 opt :   0.4308  next Energy=  -341.643242 (dE= 0.118E+02)
 bond charge predicted
       N       E                     dE             d eps       ncg     rms          rms(c)
DAV:   1    -0.341640509636E+03   -0.57739E-01   -0.10761E+01  3856   0.718E+00    0.188E+00
RMM:   2    -0.346812607164E+03   -0.51721E+01   -0.10800E+00  4016   0.208E+00    0.316E+01
RMM:   3    -0.342550732736E+03    0.42619E+01   -0.16320E-01  3771   0.989E-01    0.155E+01
RMM:   4    -0.342770667533E+03   -0.21993E+00   -0.10506E-01  3846   0.630E-01    0.171E+01
RMM:   5    -0.341786631332E+03    0.98404E+00   -0.12579E-01  4135   0.498E-01    0.612E+00
RMM:   6    -0.341746229283E+03    0.40402E-01   -0.21236E-02  4018   0.338E-01    0.513E+00
RMM:   7    -0.341783211080E+03   -0.36982E-01   -0.61969E-03  3901   0.165E-01    0.634E+00
RMM:   8    -0.341776116983E+03    0.70941E-02   -0.72841E-03  3921   0.181E-01    0.533E+00
RMM:   9    -0.341693359035E+03    0.82758E-01   -0.10756E-02  3844   0.199E-01    0.242E+00
RMM:  10    -0.341713706998E+03   -0.20348E-01   -0.85930E-03  4133   0.183E-01    0.420E+00
RMM:  11    -0.341710214133E+03    0.34929E-02   -0.14952E-03  3546   0.998E-02    0.404E+00
RMM:  12    -0.341709237202E+03    0.97693E-03   -0.15705E-04  2280   0.303E-02    0.403E+00
RMM:  13    -0.341708753251E+03    0.48395E-03   -0.60506E-05  2079   0.206E-02    0.400E+00
RMM:  14    -0.341706441409E+03    0.23118E-02   -0.10164E-04  2074   0.242E-02    0.393E+00
RMM:  15    -0.341692576898E+03    0.13865E-01   -0.16767E-03  3687   0.796E-02    0.361E+00
RMM:  16    -0.341687035106E+03    0.55418E-02   -0.11796E-03  3369   0.617E-02    0.362E+00
RMM:  17    -0.341687659756E+03   -0.62465E-03   -0.74102E-05  2058   0.288E-02    0.362E+00
RMM:  18    -0.341689235833E+03   -0.15761E-02   -0.50865E-05  2047   0.190E-02    0.373E+00
RMM:  19    -0.341690555840E+03   -0.13200E-02   -0.48260E-05  2040   0.196E-02    0.368E+00
RMM:  20    -0.341689346202E+03    0.12096E-02   -0.13091E-03  3557   0.704E-02    0.408E+00
RMM:  21    -0.341684347526E+03    0.49987E-02   -0.39726E-03  4060   0.117E-01    0.435E+00
RMM:  22    -0.341678950379E+03    0.53971E-02   -0.78836E-04  3122   0.555E-02    0.412E+00
RMM:  23    -0.341671716572E+03    0.72338E-02   -0.38870E-04  2624   0.399E-02    0.377E+00
RMM:  24    -0.341663762210E+03    0.79544E-02   -0.86776E-04  3164   0.509E-02    0.324E+00
RMM:  25    -0.341658787276E+03    0.49749E-02   -0.52742E-04  2733   0.437E-02    0.283E+00
RMM:  26    -0.341656210599E+03    0.25767E-02   -0.23544E-04  2321   0.346E-02    0.251E+00
RMM:  27    -0.341653276503E+03    0.29341E-02   -0.25108E-04  2350   0.340E-02    0.207E+00
RMM:  28    -0.341651143340E+03    0.21332E-02   -0.31429E-04  2461   0.382E-02    0.158E+00
RMM:  29    -0.341651001784E+03    0.14156E-03   -0.10374E-04  2067   0.282E-02    0.153E+00
RMM:  30    -0.341650118215E+03    0.88357E-03   -0.11460E-04  2067   0.255E-02    0.129E+00
RMM:  31    -0.341649969291E+03    0.14892E-03   -0.49516E-05  2026   0.216E-02    0.123E+00
RMM:  32    -0.341649584099E+03    0.38519E-03   -0.52131E-05  2034   0.173E-02    0.108E+00
RMM:  33    -0.341648804030E+03    0.78007E-03   -0.10558E-04  2062   0.223E-02    0.740E-01
RMM:  34    -0.341648918210E+03   -0.11418E-03   -0.43050E-05  1996   0.181E-02    0.767E-01
RMM:  35    -0.341648334075E+03    0.58414E-03   -0.85976E-05  2041   0.206E-02    0.415E-01
RMM:  36    -0.341648187618E+03    0.14646E-03   -0.74389E-05  2028   0.208E-02    0.278E-01
RMM:  37    -0.341648146805E+03    0.40813E-04   -0.48688E-05  1967   0.183E-02
   4 F= -.34164815E+03 E0= -.34163777E+03  d E =0.118134E+02
 curvature:  -0.09 expect dE=-0.772E-01 dE for cont linesearch -0.647E-03
 trial: gam= 1.07543 g(F)=  0.817E+00 g(S)=  0.000E+00 ort = 0.690E-01 (trialstep = 0.348E+00)
 search vector abs. value=  0.177E+01
 bond charge predicted
       N       E                     dE             d eps       ncg     rms          rms(c)
DAV:   1    -0.341501004113E+03    0.14718E+00   -0.91351E+01  3744   0.190E+01    0.838E+00
RMM:   2    -0.404838519771E+03   -0.63338E+02   -0.27903E+01  4280   0.930E+00    0.129E+02
RMM:   3    -0.370589574189E+03    0.34249E+02   -0.22712E+00  4164   0.311E+00    0.821E+01
RMM:   4    -0.368928668976E+03    0.16609E+01   -0.10277E+00  3832   0.213E+00    0.765E+01
RMM:   5    -0.351289213737E+03    0.17639E+02   -0.10994E+00  4015   0.187E+00    0.493E+01
RMM:   6    -0.346675925116E+03    0.46133E+01   -0.69430E-01  4333   0.151E+00    0.419E+01
RMM:   7    -0.347010702882E+03   -0.33478E+00   -0.75435E-02  4446   0.526E-01    0.426E+01
RMM:   8    -0.344130542462E+03    0.28802E+01   -0.17388E-01  4147   0.705E-01    0.347E+01
RMM:   9    -0.346502807813E+03   -0.23723E+01   -0.34629E-01  4009   0.111E+00    0.421E+01
RMM:  10    -0.342474531893E+03    0.40283E+01   -0.80705E-01  4024   0.161E+00    0.176E+01
RMM:  11    -0.343044836993E+03   -0.57031E+00   -0.83745E-01  4248   0.161E+00    0.155E+01
RMM:  12    -0.342803106628E+03    0.24173E+00   -0.13316E-01  3997   0.901E-01    0.143E+01
RMM:  13    -0.343098504279E+03   -0.29540E+00   -0.10881E-01  4178   0.586E-01    0.155E+01
RMM:  14    -0.342915933945E+03    0.18257E+00   -0.38726E-02  4171   0.431E-01    0.150E+01
RMM:  15    -0.342437718687E+03    0.47822E+00   -0.41822E-02  3996   0.374E-01    0.138E+01
RMM:  16    -0.341858880960E+03    0.57884E+00   -0.47584E-02  4141   0.375E-01    0.118E+01
RMM:  17    -0.341765595775E+03    0.93285E-01   -0.91544E-03  4425   0.175E-01    0.112E+01
RMM:  18    -0.341654691436E+03    0.11090E+00   -0.85736E-03  4134   0.171E-01    0.103E+01
RMM:  19    -0.341371716000E+03    0.28298E+00   -0.88771E-02  4011   0.504E-01    0.783E+00
RMM:  20    -0.341398083921E+03   -0.26368E-01   -0.30979E-02  4278   0.357E-01    0.103E+01
RMM:  21    -0.341493358838E+03   -0.95275E-01   -0.36867E-02  3846   0.342E-01    0.771E+00
RMM:  22    -0.341490851922E+03    0.25069E-02   -0.12147E-02  3897   0.255E-01    0.776E+00
RMM:  23    -0.341395070197E+03    0.95782E-01   -0.83522E-03  3870   0.182E-01    0.575E+00
RMM:  24    -0.341492892247E+03   -0.97822E-01   -0.49002E-03  3905   0.125E-01    0.805E+00
RMM:  25    -0.341585740347E+03   -0.92848E-01   -0.77834E-03  4003   0.146E-01    0.975E+00
RMM:  26    -0.341491861000E+03    0.93879E-01   -0.28209E-03  3759   0.114E-01    0.858E+00
RMM:  27    -0.341345682617E+03    0.14618E+00   -0.10521E-02  3921   0.184E-01    0.489E+00
RMM:  28    -0.341318635598E+03    0.27047E-01   -0.42160E-03  3959   0.133E-01    0.402E+00
RMM:  29    -0.341312143684E+03    0.64919E-02   -0.95454E-04  3248   0.588E-02    0.377E+00
RMM:  30    -0.341289008066E+03    0.23136E-01   -0.36138E-03  3963   0.106E-01    0.356E+00
RMM:  31    -0.341286950622E+03    0.20574E-02   -0.15872E-03  3586   0.922E-02    0.359E+00
RMM:  32    -0.341282650828E+03    0.42998E-02   -0.37467E-04  2547   0.437E-02    0.308E+00
RMM:  33    -0.341277692718E+03    0.49581E-02   -0.52687E-04  2893   0.486E-02    0.293E+00
RMM:  34    -0.341272135592E+03    0.55571E-02   -0.10530E-03  3547   0.621E-02    0.288E+00
RMM:  35    -0.341253261097E+03    0.18874E-01   -0.85662E-03  3823   0.179E-01    0.175E+00
RMM:  36    -0.341249634817E+03    0.36263E-02   -0.21389E-03  3860   0.886E-02    0.123E+00
RMM:  37    -0.341249417985E+03    0.21683E-03   -0.20407E-04  2250   0.304E-02    0.127E+00
RMM:  38    -0.341247104754E+03    0.23132E-02   -0.52317E-04  2789   0.435E-02    0.928E-01
RMM:  39    -0.341252259696E+03   -0.51549E-02   -0.26482E-03  3880   0.885E-02    0.216E+00
RMM:  40    -0.341244408288E+03    0.78514E-02   -0.14134E-03  3583   0.801E-02    0.907E-01
RMM:  41    -0.341242903312E+03    0.15050E-02   -0.55398E-04  2886   0.486E-02    0.583E-01
RMM:  42    -0.341242655648E+03    0.24766E-03   -0.12061E-04  2082   0.291E-02    0.429E-01
RMM:  43    -0.341242370233E+03    0.28541E-03   -0.13457E-04  2110   0.278E-02    0.162E-01
RMM:  44    -0.341242353679E+03    0.16554E-04   -0.10828E-04  2082   0.244E-02
   5 F= -.34124235E+03 E0= -.34123259E+03  d E =0.405793E+00
 trial-energy change:    0.405793  1 .order    0.457669   -0.310273    1.225612
 step:   0.0832(harm=  0.0704)  dis= 0.01922  next Energy=  -341.685910 (dE=-0.378E-01)
 bond charge predicted
       N       E                     dE             d eps       ncg     rms          rms(c)
DAV:   1    -0.341825861160E+03   -0.58349E+00   -0.53059E+01  3744   0.144E+01    0.673E+00
RMM:   2    -0.387265483947E+03   -0.45440E+02   -0.85573E+00  3881   0.451E+00    0.645E+01
RMM:   3    -0.347354532689E+03    0.39911E+02   -0.22560E+00  3766   0.304E+00    0.230E+01
RMM:   4    -0.345976795735E+03    0.13777E+01   -0.88993E-01  3928   0.161E+00    0.239E+01
RMM:   5    -0.348011502122E+03   -0.20347E+01   -0.14004E-01  4087   0.719E-01    0.297E+01
RMM:   6    -0.347925831219E+03    0.85671E-01   -0.33793E-02  4203   0.371E-01    0.287E+01
RMM:   7    -0.347718747060E+03    0.20708E+00   -0.18284E-02  4086   0.249E-01    0.278E+01
RMM:   8    -0.348201685961E+03   -0.48294E+00   -0.76461E-02  3968   0.457E-01    0.290E+01
RMM:   9    -0.344721253683E+03    0.34804E+01   -0.48879E-01  3891   0.141E+00    0.216E+01
RMM:  10    -0.342402875971E+03    0.23184E+01   -0.98664E-01  4049   0.193E+00    0.105E+01
RMM:  11    -0.342585996091E+03   -0.18312E+00   -0.52113E-01  4269   0.112E+00    0.178E+01
RMM:  12    -0.341905073413E+03    0.68092E+00   -0.12409E-01  3897   0.830E-01    0.629E+00
RMM:  13    -0.341810468184E+03    0.94605E-01   -0.31062E-02  4036   0.390E-01    0.383E+00
RMM:  14    -0.341865181710E+03   -0.54714E-01   -0.56754E-02  4247   0.440E-01    0.658E+00
RMM:  15    -0.341913537750E+03   -0.48356E-01   -0.25569E-02  4262   0.316E-01    0.817E+00
RMM:  16    -0.341800168257E+03    0.11337E+00   -0.66821E-02  3974   0.456E-01    0.628E+00
RMM:  17    -0.341814542736E+03   -0.14374E-01   -0.17118E-02  4154   0.302E-01    0.644E+00
RMM:  18    -0.341777092656E+03    0.37450E-01   -0.29339E-03  3973   0.110E-01    0.526E+00
RMM:  19    -0.341744636552E+03    0.32456E-01   -0.77460E-03  4064   0.155E-01    0.463E+00
RMM:  20    -0.341726333506E+03    0.18303E-01   -0.40559E-03  3988   0.136E-01    0.386E+00
RMM:  21    -0.341716503656E+03    0.98298E-02   -0.26542E-03  3842   0.107E-01    0.366E+00
RMM:  22    -0.341704697409E+03    0.11806E-01   -0.12344E-03  3471   0.726E-02    0.251E+00
RMM:  23    -0.341698044827E+03    0.66526E-02   -0.13344E-03  3466   0.801E-02    0.167E+00
RMM:  24    -0.341694838957E+03    0.32059E-02   -0.54525E-04  2734   0.519E-02    0.137E+00
RMM:  25    -0.341690542035E+03    0.42969E-02   -0.89343E-04  3263   0.577E-02    0.904E-01
RMM:  26    -0.341688242208E+03    0.22998E-02   -0.20191E-03  3646   0.905E-02    0.916E-01
RMM:  27    -0.341686593777E+03    0.16484E-02   -0.56168E-04  2758   0.519E-02    0.543E-01
RMM:  28    -0.341685668330E+03    0.92545E-03   -0.26707E-04  2355   0.363E-02    0.296E-01
RMM:  29    -0.341686826028E+03   -0.11577E-02   -0.42753E-04  2669   0.461E-02    0.950E-01
RMM:  30    -0.341685262912E+03    0.15631E-02   -0.21661E-04  2249   0.372E-02    0.289E-01
RMM:  31    -0.341685224527E+03    0.38385E-04   -0.10764E-04  2059   0.273E-02
   6 F= -.34168522E+03 E0= -.34167484E+03  d E =-.370777E-01
 curvature:  -0.07 expect dE=-0.338E-01 dE for cont linesearch -0.524E-04
 trial: gam= 0.09435 g(F)=  0.484E+00 g(S)=  0.000E+00 ort = 0.365E-01 (trialstep = 0.295E+00)
 search vector abs. value=  0.507E+00
 bond charge predicted
       N       E                     dE             d eps       ncg     rms          rms(c)
DAV:   1    -0.341715211110E+03   -0.29948E-01   -0.22379E+01  3744   0.110E+01    0.181E+00
RMM:   2    -0.343252422972E+03   -0.15372E+01   -0.91036E-01  3909   0.221E+00    0.195E+01
RMM:   3    -0.342355699036E+03    0.89672E+00   -0.20572E-01  3857   0.963E-01    0.110E+01
RMM:   4    -0.341804454161E+03    0.55124E+00   -0.34305E-02  3756   0.542E-01    0.244E+00
RMM:   5    -0.341794935612E+03    0.95185E-02   -0.12530E-02  4095   0.214E-01    0.331E+00
RMM:   6    -0.341796620269E+03   -0.16847E-02   -0.34589E-03  3704   0.127E-01    0.260E+00
RMM:   7    -0.341775865794E+03    0.20754E-01   -0.10163E-02  3878   0.195E-01    0.131E+00
RMM:   8    -0.341771865444E+03    0.40004E-02   -0.53463E-03  3815   0.160E-01    0.115E+00
RMM:   9    -0.341768370326E+03    0.34951E-02   -0.55237E-03  3908   0.136E-01    0.985E-01
RMM:  10    -0.341764896858E+03    0.34735E-02   -0.15715E-03  3574   0.812E-02    0.280E-01
RMM:  11    -0.341764746792E+03    0.15007E-03   -0.22156E-04  2264   0.399E-02    0.286E-01
RMM:  12    -0.341764819923E+03   -0.73131E-04   -0.19207E-04  2153   0.383E-02
   7 F= -.34176482E+03 E0= -.34175539E+03  d E =-.795954E-01
 trial-energy change:   -0.079595  1 .order   -0.080563   -0.143972   -0.017154
 step:   0.3374(harm=  0.3352)  dis= 0.03782  next Energy=  -341.766041 (dE=-0.808E-01)
 bond charge predicted
       N       E                     dE             d eps       ncg     rms          rms(c)
DAV:   1    -0.341765117313E+03   -0.37052E-03   -0.45910E-01  3920   0.158E+00    0.387E-01
RMM:   2    -0.341883928750E+03   -0.11881E+00   -0.23680E-02  3993   0.348E-01    0.646E+00
RMM:   3    -0.341788158984E+03    0.95770E-01   -0.12161E-02  3852   0.224E-01    0.255E+00
RMM:   4    -0.341767413095E+03    0.20746E-01   -0.23699E-03  3484   0.153E-01    0.605E-01
RMM:   5    -0.341767262285E+03    0.15081E-03   -0.57814E-04  2786   0.494E-02    0.588E-01
RMM:   6    -0.341766065675E+03    0.11966E-02   -0.19750E-04  2183   0.365E-02    0.239E-01
RMM:   7    -0.341766123811E+03   -0.58136E-04   -0.14882E-04  2095   0.367E-02
   8 F= -.34176612E+03 E0= -.34175652E+03  d E =-.808993E-01
 curvature:  -0.17 expect dE=-0.223E-01 dE for cont linesearch -0.439E-04
 trial: gam= 0.24885 g(F)=  0.128E+00 g(S)=  0.000E+00 ort = 0.113E-01 (trialstep = 0.304E+00)
 search vector abs. value=  0.165E+00
 bond charge predicted
       N       E                     dE             d eps       ncg     rms          rms(c)
DAV:   1    -0.341774893662E+03   -0.88280E-02   -0.71957E+00  3744   0.613E+00    0.113E+00
RMM:   2    -0.343130498163E+03   -0.13556E+01   -0.36366E-01  3990   0.130E+00    0.190E+01
RMM:   3    -0.341865190334E+03    0.12653E+01   -0.91829E-02  3830   0.669E-01    0.274E+00
RMM:   4    -0.341808020555E+03    0.57170E-01   -0.17440E-02  3793   0.355E-01    0.248E+00
RMM:   5    -0.341794996972E+03    0.13024E-01   -0.12446E-02  4163   0.172E-01    0.166E+00
RMM:   6    -0.341795380800E+03   -0.38383E-03   -0.27109E-03  3748   0.124E-01    0.150E+00
RMM:   7    -0.341790086659E+03    0.52941E-02   -0.38340E-03  3752   0.111E-01    0.647E-01
RMM:   8    -0.341792827076E+03   -0.27404E-02   -0.36116E-03  3806   0.115E-01    0.114E+00
RMM:   9    -0.341789772889E+03    0.30542E-02   -0.15471E-03  3577   0.852E-02    0.838E-01
RMM:  10    -0.341787590991E+03    0.21819E-02   -0.55796E-04  2870   0.503E-02    0.167E-01
RMM:  11    -0.341787614062E+03   -0.23071E-04   -0.11493E-04  2040   0.346E-02
   9 F= -.34178761E+03 E0= -.34177797E+03  d E =-.214903E-01
 trial-energy change:   -0.021490  1 .order   -0.021800   -0.039832   -0.003768
 step:   0.3354(harm=  0.3354)  dis= 0.01634  next Energy=  -341.788120 (dE=-0.220E-01)
 bond charge predicted
       N       E                     dE             d eps       ncg     rms          rms(c)
DAV:   1    -0.341787612757E+03   -0.21766E-04   -0.79071E-02  3904   0.645E-01    0.160E-01
RMM:   2    -0.341829512215E+03   -0.41899E-01   -0.51983E-03  3910   0.153E-01    0.379E+00
RMM:   3    -0.341789194934E+03    0.40317E-01   -0.28951E-03  3595   0.116E-01    0.619E-01
RMM:   4    -0.341788612570E+03    0.58236E-03   -0.49894E-04  2835   0.720E-02    0.496E-01
RMM:   5    -0.341787835113E+03    0.77746E-03   -0.93786E-05  2027   0.314E-02    0.240E-01
RMM:   6    -0.341787962671E+03   -0.12756E-03   -0.39287E-05  1985   0.197E-02    0.287E-01
RMM:   7    -0.341787735627E+03    0.22704E-03   -0.22668E-05  1797   0.136E-02    0.101E-01
RMM:   8    -0.341787774551E+03   -0.38924E-04   -0.22818E-05  1889   0.149E-02
  10 F= -.34178777E+03 E0= -.34177813E+03  d E =-.216507E-01
 curvature:  -0.21 expect dE=-0.581E-02 dE for cont linesearch -0.393E-05
 trial: gam= 0.20266 g(F)=  0.275E-01 g(S)=  0.000E+00 ort = 0.175E-02 (trialstep = 0.310E+00)
 search vector abs. value=  0.350E-01
 bond charge predicted
       N       E                     dE             d eps       ncg     rms          rms(c)
DAV:   1    -0.341790353141E+03   -0.26175E-02   -0.16689E+00  3744   0.311E+00    0.391E-01
RMM:   2    -0.341912013733E+03   -0.12166E+00   -0.57103E-02  3863   0.579E-01    0.652E+00
RMM:   3    -0.341806053940E+03    0.10596E+00   -0.10379E-02  3806   0.247E-01    0.173E+00
RMM:   4    -0.341795227315E+03    0.10827E-01   -0.27092E-03  3588   0.142E-01    0.483E-01
RMM:   5    -0.341796712089E+03   -0.14848E-02   -0.63671E-04  2954   0.521E-02    0.103E+00
RMM:   6    -0.341794025894E+03    0.26862E-02   -0.49419E-04  2658   0.528E-02    0.281E-01
RMM:   7    -0.341794543445E+03   -0.51755E-03   -0.52999E-04  2948   0.548E-02    0.386E-01
RMM:   8    -0.341794076270E+03    0.46718E-03   -0.29405E-04  2381   0.440E-02    0.197E-01
RMM:   9    -0.341793874283E+03    0.20199E-03   -0.12102E-04  2009   0.323E-02    0.166E-01
RMM:  10    -0.341793877986E+03   -0.37038E-05   -0.52090E-05  1973   0.237E-02
  11 F= -.34179388E+03 E0= -.34178439E+03  d E =-.610344E-02
 trial-energy change:   -0.006103  1 .order   -0.006341   -0.008626   -0.004057
 step:   0.5853(harm=  0.5853)  dis= 0.01245  next Energy=  -341.795916 (dE=-0.814E-02)
 bond charge predicted
       N       E                     dE             d eps       ncg     rms          rms(c)
DAV:   1    -0.341792788617E+03    0.10857E-02   -0.13154E+00  3744   0.276E+00    0.380E-01
RMM:   2    -0.341916647209E+03   -0.12386E+00   -0.47403E-02  3869   0.522E-01    0.659E+00
RMM:   3    -0.341809143673E+03    0.10750E+00   -0.10737E-02  3816   0.241E-01    0.186E+00
RMM:   4    -0.341796758146E+03    0.12386E-01   -0.24630E-03  3563   0.142E-01    0.482E-01
RMM:   5    -0.341798416358E+03   -0.16582E-02   -0.53735E-04  2823   0.500E-02    0.101E+00
RMM:   6    -0.341795748049E+03    0.26683E-02   -0.38317E-04  2547   0.499E-02    0.307E-01
RMM:   7    -0.341795994261E+03   -0.24621E-03   -0.39049E-04  2604   0.497E-02    0.309E-01
RMM:   8    -0.341795725390E+03    0.26887E-03   -0.18887E-04  2090   0.393E-02    0.163E-01
RMM:   9    -0.341795609451E+03    0.11594E-03   -0.89768E-05  2017   0.290E-02    0.171E-01
RMM:  10    -0.341795615377E+03   -0.59251E-05   -0.39628E-05  1960   0.199E-02
  12 F= -.34179562E+03 E0= -.34178626E+03  d E =-.784083E-02
 curvature:  -0.37 expect dE=-0.261E-02 dE for cont linesearch -0.940E-05
 trial: gam= 0.25885 g(F)=  0.710E-02 g(S)=  0.000E+00 ort = 0.945E-03 (trialstep = 0.365E+00)
 search vector abs. value=  0.993E-02
 bond charge predicted
       N       E                     dE             d eps       ncg     rms          rms(c)
DAV:   1    -0.341796289237E+03   -0.67979E-03   -0.58737E-01  3744   0.164E+00    0.516E-01
RMM:   2    -0.342099106872E+03   -0.30282E+00   -0.52409E-02  3983   0.451E-01    0.108E+01
RMM:   3    -0.341817606903E+03    0.28150E+00   -0.21237E-02  3870   0.303E-01    0.151E+00
RMM:   4    -0.341813055969E+03    0.45509E-02   -0.43844E-03  3572   0.187E-01    0.265E+00
RMM:   5    -0.341803147351E+03    0.99086E-02   -0.15590E-03  3601   0.811E-02    0.173E+00
RMM:   6    -0.341802034820E+03    0.11125E-02   -0.64067E-04  3001   0.533E-02    0.152E+00
RMM:   7    -0.341799115505E+03    0.29193E-02   -0.25894E-04  2320   0.406E-02    0.117E+00
RMM:   8    -0.341797938008E+03    0.11775E-02   -0.22964E-04  2245   0.410E-02    0.876E-01
RMM:   9    -0.341796867936E+03    0.10701E-02   -0.24301E-04  2286   0.388E-02    0.465E-01
RMM:  10    -0.341796877126E+03   -0.91903E-05   -0.84629E-05  2018   0.282E-02
  13 F= -.34179688E+03 E0= -.34178744E+03  d E =-.126175E-02
 trial-energy change:   -0.001262  1 .order   -0.000722   -0.002680    0.001237
 step:   0.2961(harm=  0.2498)  dis= 0.00297  next Energy=  -341.796990 (dE=-0.137E-02)
 bond charge predicted
       N       E                     dE             d eps       ncg     rms          rms(c)
DAV:   1    -0.341796979407E+03   -0.11147E-03   -0.21294E-02  3872   0.314E-01    0.457E-01
RMM:   2    -0.342178832920E+03   -0.38185E+00   -0.32205E-02  4014   0.273E-01    0.104E+01
RMM:   3    -0.341812162724E+03    0.36667E+00   -0.26765E-02  3875   0.307E-01    0.148E+00
RMM:   4    -0.341798236628E+03    0.13926E-01   -0.35026E-03  3537   0.177E-01    0.488E-01
RMM:   5    -0.341796866097E+03    0.13705E-02   -0.66516E-04  3040   0.587E-02    0.304E-01
RMM:   6    -0.341796966383E+03   -0.10029E-03   -0.16868E-04  2068   0.349E-02    0.375E-01
RMM:   7    -0.341796794730E+03    0.17165E-03   -0.53287E-05  1929   0.251E-02    0.303E-01
RMM:   8    -0.341796635438E+03    0.15929E-03   -0.23717E-05  1714   0.128E-02    0.186E-01
RMM:   9    -0.341796563961E+03    0.71477E-04   -0.20236E-05  1763   0.114E-02
  14 F= -.34179656E+03 E0= -.34178711E+03  d E =-.948585E-03
 curvature:  -0.14 expect dE=-0.536E-03 dE for cont linesearch -0.103E-06
 trial: gam= 0.55928 g(F)=  0.378E-02 g(S)=  0.000E+00 ort =-0.849E-04 (trialstep = 0.351E+00)
 search vector abs. value=  0.679E-02
 bond charge predicted
       N       E                     dE             d eps       ncg     rms          rms(c)
DAV:   1    -0.341796563456E+03    0.71983E-04   -0.37715E-01  3760   0.131E+00    0.198E-01
RMM:   2    -0.341856350106E+03   -0.59787E-01   -0.16170E-02  3915   0.282E-01    0.464E+00
RMM:   3    -0.341801091512E+03    0.55259E-01   -0.22945E-03  3609   0.135E-01    0.119E+00
RMM:   4    -0.341805084386E+03   -0.39929E-02   -0.70934E-04  2941   0.662E-02    0.165E+00
RMM:   5    -0.341797980272E+03    0.71041E-02   -0.80452E-04  3084   0.533E-02    0.730E-01
RMM:   6    -0.341798774417E+03   -0.79414E-03   -0.20301E-04  2114   0.438E-02    0.873E-01
RMM:   7    -0.341798133336E+03    0.64108E-03   -0.14823E-04  2029   0.337E-02    0.711E-01
RMM:   8    -0.341797711272E+03    0.42206E-03   -0.14914E-04  2088   0.319E-02    0.526E-01
RMM:   9    -0.341797115967E+03    0.59530E-03   -0.13934E-04  2080   0.285E-02    0.204E-01
RMM:  10    -0.341797096467E+03    0.19500E-04   -0.54635E-05  1936   0.231E-02
  15 F= -.34179710E+03 E0= -.34178762E+03  d E =-.532506E-03
 trial-energy change:   -0.000533  1 .order   -0.000449   -0.001311    0.000413
 step:   0.2672(harm=  0.2672)  dis= 0.00208  next Energy=  -341.797063 (dE=-0.499E-03)
 bond charge predicted
       N       E                     dE             d eps       ncg     rms          rms(c)
DAV:   1    -0.341797179193E+03   -0.63226E-04   -0.21784E-02  3776   0.316E-01    0.176E-01
RMM:   2    -0.341875377208E+03   -0.78198E-01   -0.70577E-03  3921   0.136E-01    0.517E+00
RMM:   3    -0.341798361465E+03    0.77016E-01   -0.42474E-03  3584   0.139E-01    0.175E-01
RMM:   4    -0.341797170142E+03    0.11913E-02   -0.85498E-04  3103   0.829E-02    0.194E-01
RMM:   5    -0.341797377595E+03   -0.20745E-03   -0.11492E-04  1993   0.352E-02    0.222E-01
RMM:   6    -0.341797158213E+03    0.21938E-03   -0.61508E-05  1919   0.230E-02    0.863E-02
RMM:   7    -0.341797177908E+03   -0.19694E-04   -0.20168E-05  1685   0.151E-02
  16 F= -.34179718E+03 E0= -.34178774E+03  d E =-.613946E-03
 curvature:  -0.24 expect dE=-0.471E-03 dE for cont linesearch -0.835E-05
 ZBRENT: interpolating
 opt :   0.2917  next Energy=  -341.797184 (dE=-0.620E-03)
 bond charge predicted
       N       E                     dE             d eps       ncg     rms          rms(c)
DAV:   1    -0.341797184992E+03   -0.26778E-04   -0.18626E-03  3672   0.942E-02    0.143E-01
RMM:   2    -0.341843717428E+03   -0.46532E-01   -0.38671E-03  3767   0.935E-02    0.400E+00
RMM:   3    -0.341797868393E+03    0.45849E-01   -0.29498E-03  3582   0.111E-01    0.387E-01
RMM:   4    -0.341797174033E+03    0.69436E-03   -0.46992E-04  2684   0.691E-02    0.107E-01
RMM:   5    -0.341797186117E+03   -0.12084E-04   -0.68000E-05  1935   0.275E-02
  17 F= -.34179719E+03 E0= -.34178778E+03  d E =-.622156E-03
 curvature:  -0.17 expect dE=-0.327E-03 dE for cont linesearch -0.141E-06
 trial: gam= 0.29317 g(F)=  0.190E-02 g(S)=  0.000E+00 ort = 0.744E-04 (trialstep = 0.339E+00)
 search vector abs. value=  0.253E-02
 bond charge predicted
       N       E                     dE             d eps       ncg     rms          rms(c)
DAV:   1    -0.341797248455E+03   -0.74422E-04   -0.14761E-01  3744   0.863E-01    0.121E-01
RMM:   2    -0.341802039746E+03   -0.47913E-02   -0.48416E-03  3598   0.161E-01    0.145E+00
RMM:   3    -0.341799541629E+03    0.24981E-02   -0.73199E-04  2986   0.659E-02    0.687E-01
RMM:   4    -0.341797630537E+03    0.19111E-02   -0.14707E-04  2041   0.426E-02    0.195E-01
RMM:   5    -0.341797787575E+03   -0.15704E-03   -0.52339E-05  1957   0.247E-02    0.239E-01
RMM:   6    -0.341797736199E+03    0.51376E-04   -0.63065E-05  1947   0.211E-02
  18 F= -.34179774E+03 E0= -.34178841E+03  d E =-.550081E-03
 trial-energy change:   -0.000550  1 .order   -0.000375   -0.000652   -0.000097
 step:   0.3987(harm=  0.3987)  dis= 0.00133  next Energy=  -341.797569 (dE=-0.383E-03)
 bond charge predicted
       N       E                     dE             d eps       ncg     rms          rms(c)
DAV:   1    -0.341797732707E+03    0.54867E-04   -0.45387E-03  3728   0.157E-01    0.246E-01
RMM:   2    -0.341971986634E+03   -0.17425E+00   -0.12467E-02  3997   0.172E-01    0.708E+00
RMM:   3    -0.341800576721E+03    0.17141E+00   -0.90243E-03  3781   0.196E-01    0.653E-01
RMM:   4    -0.341798904990E+03    0.16717E-02   -0.20757E-03  3641   0.120E-01    0.560E-01
RMM:   5    -0.341797735325E+03    0.11697E-02   -0.31122E-04  2423   0.506E-02    0.200E-01
RMM:   6    -0.341797668420E+03    0.66905E-04   -0.89655E-05  1992   0.314E-02
  19 F= -.34179767E+03 E0= -.34178849E+03  d E =-.482303E-03
 curvature:  -0.26 expect dE=-0.328E-03 dE for cont linesearch -0.344E-06
 trial: gam= 0.69457 g(F)=  0.125E-02 g(S)=  0.000E+00 ort =-0.576E-04 (trialstep = 0.351E+00)
 search vector abs. value=  0.239E-02
 bond charge predicted
       N       E                     dE             d eps       ncg     rms          rms(c)
DAV:   1    -0.341797691038E+03    0.44287E-04   -0.13684E-01  3760   0.772E-01    0.197E-01
RMM:   2    -0.341845707713E+03   -0.48017E-01   -0.90529E-03  3971   0.175E-01    0.347E+00
RMM:   3    -0.341801547679E+03    0.44160E-01   -0.31423E-03  3561   0.124E-01    0.135E+00
RMM:   4    -0.341801092557E+03    0.45512E-03   -0.14207E-03  3396   0.920E-02    0.102E+00
RMM:   5    -0.341799651514E+03    0.14410E-02   -0.32757E-04  2415   0.429E-02    0.890E-01
RMM:   6    -0.341799618135E+03    0.33379E-04   -0.78157E-05  1998   0.282E-02
  20 F= -.34179962E+03 E0= -.34179057E+03  d E =-.194971E-02
 trial-energy change:   -0.001950  1 .order   -0.000176   -0.000425    0.000072
 step:   0.3489(harm=  0.3002)  dis= 0.00040  next Energy=  -341.799618 (dE=-0.195E-02)
 bond charge predicted
       N       E                     dE             d eps       ncg     rms          rms(c)
DAV:   1    -0.341797987196E+03    0.16643E-02   -0.21353E-03  2488   0.110E-01    0.336E-01
RMM:   2    -0.342047760478E+03   -0.24977E+00   -0.20584E-02  3940   0.214E-01    0.859E+00
RMM:   3    -0.341805411713E+03    0.24235E+00   -0.16181E-02  3863   0.245E-01    0.120E+00
RMM:   4    -0.341799885517E+03    0.55262E-02   -0.22674E-03  3556   0.144E-01    0.691E-01
RMM:   5    -0.341797966506E+03    0.19190E-02   -0.37651E-04  2551   0.490E-02    0.225E-01
RMM:   6    -0.341798277260E+03   -0.31075E-03   -0.13635E-04  2075   0.321E-02    0.341E-01
RMM:   7    -0.341797925161E+03    0.35210E-03   -0.41788E-05  1945   0.211E-02    0.211E-01
RMM:   8    -0.341797843263E+03    0.81898E-04   -0.13555E-05  1629   0.118E-02
  21 F= -.34179784E+03 E0= -.34178853E+03  d E =-.174843E-03
 curvature:  -0.03 expect dE=-0.243E-04 dE for cont linesearch -0.129E-06
 trial: gam= 0.63322 g(F)=  0.933E-03 g(S)=  0.000E+00 ort = 0.109E-03 (trialstep = 0.351E+00)
 search vector abs. value=  0.203E-02
 bond charge predicted
       N       E                     dE             d eps       ncg     rms          rms(c)
DAV:   1    -0.341797971478E+03   -0.46317E-04   -0.10523E-01  3760   0.640E-01    0.230E-01
RMM:   2    -0.341965020919E+03   -0.16705E+00   -0.16985E-02  3996   0.208E-01    0.722E+00
RMM:   3    -0.341800546900E+03    0.16447E+00   -0.77526E-03  3721   0.195E-01    0.429E-01
RMM:   4    -0.341798278984E+03    0.22679E-02   -0.16679E-03  3413   0.108E-01    0.505E-01
RMM:   5    -0.341798252183E+03    0.26800E-04   -0.28922E-04  2394   0.455E-02
  22 F= -.34179825E+03 E0= -.34178875E+03  d E =-.408920E-03
 trial-energy change:   -0.000409  1 .order   -0.000048   -0.000351    0.000254
 step:   0.2034(harm=  0.2034)  dis= 0.00018  next Energy=  -341.797945 (dE=-0.102E-03)
 bond charge predicted
       N       E                     dE             d eps       ncg     rms          rms(c)
DAV:   1    -0.341798510232E+03   -0.23125E-03   -0.18745E-02  3776   0.277E-01    0.493E-01
RMM:   2    -0.342370190705E+03   -0.57168E+00   -0.53357E-02  4037   0.335E-01    0.130E+01
RMM:   3    -0.341810560221E+03    0.55963E+00   -0.32474E-02  3848   0.356E-01    0.641E-01
RMM:   4    -0.341798166985E+03    0.12393E-01   -0.61716E-03  3747   0.201E-01    0.406E-01
RMM:   5    -0.341798392519E+03   -0.22553E-03   -0.63169E-04  2885   0.673E-02    0.293E-01
RMM:   6    -0.341798005938E+03    0.38658E-03   -0.16595E-04  2143   0.325E-02    0.124E-01
RMM:   7    -0.341797932343E+03    0.73595E-04   -0.49646E-05  1956   0.234E-02
  23 F= -.34179793E+03 E0= -.34178853E+03  d E =-.890803E-04
 curvature:  -0.21 expect dE=-0.660E-04 dE for cont linesearch -0.516E-05
 ZBRENT: interpolating
 opt :   0.2384  next Energy=  -341.797936 (dE=-0.930E-04)
 bond charge predicted
       N       E                     dE             d eps       ncg     rms          rms(c)
DAV:   1    -0.341797944366E+03    0.61572E-04   -0.10745E-03  3720   0.670E-02    0.104E-01
RMM:   2    -0.341822459708E+03   -0.24515E-01   -0.20633E-03  3700   0.660E-02    0.290E+00
RMM:   3    -0.341798229853E+03    0.24230E-01   -0.15752E-03  3505   0.822E-02    0.302E-01
RMM:   4    -0.341798022188E+03    0.20766E-03   -0.25625E-04  2307   0.518E-02    0.181E-01
RMM:   5    -0.341797946657E+03    0.75531E-04   -0.43362E-05  1890   0.241E-02
  24 F= -.34179795E+03 E0= -.34178854E+03  d E =-.103394E-03
 curvature:  -0.16 expect dE=-0.641E-04 dE for cont linesearch -0.302E-05
 ZBRENT: bisectioning
 opt :   0.2946  next Energy=  -341.797956 (dE=-0.113E-03)
 bond charge predicted
       N       E                     dE             d eps       ncg     rms          rms(c)
DAV:   1    -0.341797924573E+03    0.97615E-04   -0.27602E-03  3712   0.107E-01    0.373E-02
RMM:   2    -0.341802971614E+03   -0.50470E-02   -0.46178E-04  2685   0.373E-02    0.129E+00
RMM:   3    -0.341798028665E+03    0.49429E-02   -0.15962E-04  2022   0.396E-02    0.187E-01
RMM:   4    -0.341797876759E+03    0.15191E-03   -0.82449E-05  1900   0.274E-02    0.721E-02
RMM:   5    -0.341797945777E+03   -0.69018E-04   -0.28640E-05  1751   0.161E-02
  25 F= -.34179795E+03 E0= -.34178844E+03  d E =-.102514E-03
 curvature:  -0.51 expect dE=-0.674E-03 dE for cont linesearch -0.207E-05
 trial: gam= 1.78981 g(F)=  0.132E-02 g(S)=  0.000E+00 ort =-0.905E-04 (trialstep = 0.919E-01)
 search vector abs. value=  0.749E-02
 bond charge predicted
       N       E                     dE             d eps       ncg     rms          rms(c)
DAV:   1    -0.341797991851E+03   -0.11509E-03   -0.29050E-02  3760   0.366E-01    0.660E-02
RMM:   2    -0.341798680624E+03   -0.68877E-03   -0.10317E-03  3107   0.731E-02    0.330E-01
RMM:   3    -0.341799153541E+03   -0.47292E-03   -0.18055E-04  2095   0.362E-02    0.630E-01
RMM:   4    -0.341798001113E+03    0.11524E-02   -0.76422E-05  1900   0.289E-02    0.861E-02
RMM:   5    -0.341798035310E+03   -0.34197E-04   -0.29515E-05  1799   0.179E-02
  26 F= -.34179804E+03 E0= -.34178850E+03  d E =-.895326E-04
 trial-energy change:   -0.000090  1 .order   -0.000090   -0.000106   -0.000073
 step:   0.2918(harm=  0.2918)  dis= 0.00052  next Energy=  -341.798114 (dE=-0.169E-03)
 bond charge predicted
       N       E                     dE             d eps       ncg     rms          rms(c)
DAV:   1    -0.341797962852E+03    0.38261E-04   -0.13736E-01  3760   0.793E-01    0.142E-01
RMM:   2    -0.341832608918E+03   -0.34646E-01   -0.66934E-03  3978   0.167E-01    0.319E+00
RMM:   3    -0.341798825206E+03    0.33784E-01   -0.18605E-03  3543   0.103E-01    0.497E-01
RMM:   4    -0.341798873803E+03   -0.48598E-04   -0.54171E-04  2874   0.653E-02
  27 F= -.34179887E+03 E0= -.34178953E+03  d E =-.928026E-03
 curvature:  -0.95 expect dE=-0.180E-02 dE for cont linesearch -0.101E-06
 trial: gam= 2.07527 g(F)=  0.190E-02 g(S)=  0.000E+00 ort = 0.283E-04 (trialstep = 0.288E-01)
 search vector abs. value=  0.343E-01
 bond charge predicted
       N       E                     dE             d eps       ncg     rms          rms(c)
DAV:   1    -0.341798345262E+03    0.47994E-03   -0.13715E-02  3776   0.268E-01    0.312E-01
RMM:   2    -0.341966844682E+03   -0.16850E+00   -0.15470E-02  3916   0.187E-01    0.742E+00
RMM:   3    -0.341806116139E+03    0.16073E+00   -0.12282E-02  3861   0.214E-01    0.121E+00
RMM:   4    -0.341798470366E+03    0.76458E-02   -0.17558E-03  3396   0.128E-01    0.161E-01
RMM:   5    -0.341798222865E+03    0.24750E-03   -0.18729E-04  2157   0.388E-02    0.105E-01
RMM:   6    -0.341798197258E+03    0.25607E-04   -0.77633E-05  1969   0.306E-02
  28 F= -.34179820E+03 E0= -.34178862E+03  d E =0.676545E-03
 trial-energy change:    0.000677  1 .order   -0.000029   -0.000057   -0.000002
 step:   0.0299(harm=  0.0299)  dis= 0.00009  next Energy=  -341.798903 (dE=-0.293E-04)
 bond charge predicted
       N       E                     dE             d eps       ncg     rms          rms(c)
DAV:   1    -0.341798209617E+03    0.13248E-04   -0.72817E-05  2400   0.372E-02    0.892E-02
RMM:   2    -0.341809216475E+03   -0.11007E-01   -0.12836E-03  3395   0.571E-02    0.190E+00
RMM:   3    -0.341798502398E+03    0.10714E-01   -0.64465E-04  2964   0.580E-02    0.302E-01
RMM:   4    -0.341798180954E+03    0.32144E-03   -0.28481E-04  2287   0.459E-02    0.730E-02
RMM:   5    -0.341798211691E+03   -0.30737E-04   -0.52289E-05  1886   0.230E-02
  29 F= -.34179821E+03 E0= -.34178870E+03  d E =0.662112E-03
 curvature:  -0.26 expect dE=-0.256E-03 dE for cont linesearch -0.237E-06
 trial: gam= 0.22423 g(F)=  0.978E-03 g(S)=  0.000E+00 ort =-0.176E-03 (trialstep = 0.290E-01)
 search vector abs. value=  0.262E-02
 bond charge predicted
       N       E                     dE             d eps       ncg     rms          rms(c)
DAV:   1    -0.341798223984E+03   -0.43030E-04   -0.12918E-03  3624   0.886E-02    0.446E-02
RMM:   2    -0.341804053336E+03   -0.58294E-02   -0.45430E-04  2715   0.399E-02    0.126E+00
RMM:   3    -0.341798365721E+03    0.56876E-02   -0.19781E-04  2104   0.414E-02    0.192E-01
RMM:   4    -0.341798187306E+03    0.17842E-03   -0.10398E-04  1919   0.317E-02    0.557E-02
RMM:   5    -0.341798221391E+03   -0.34085E-04   -0.38940E-05  1833   0.182E-02
  30 F= -.34179822E+03 E0= -.34178867E+03  d E =-.969952E-05
 ZBRENT: can't locate minimum, use default step
 trial-energy change:   -0.000010  1 .order   -0.000027   -0.000027   -0.000027
 step:   0.1162(harm=  1.1221)  dis= 0.00006  next Energy=  -341.798738 (dE=-0.527E-03)
 bond charge predicted
       N       E                     dE             d eps       ncg     rms          rms(c)
DAV:   1    -0.341798291699E+03   -0.10439E-03   -0.10016E-02  3752   0.228E-01    0.350E-02
RMM:   2    -0.341799672342E+03   -0.13806E-02   -0.34882E-04  2333   0.415E-02    0.692E-01
RMM:   3    -0.341798290420E+03    0.13819E-02   -0.62659E-05  1902   0.284E-02    0.731E-02
RMM:   4    -0.341798303789E+03   -0.13369E-04   -0.29933E-05  1851   0.173E-02
  31 F= -.34179830E+03 E0= -.34178869E+03  d E =-.920973E-04
 curvature:  -0.24 expect dE=-0.189E-03 dE for cont linesearch -0.421E-04
 ZBRENT: increasing intervall
 opt :   0.2904  next Energy=  -341.798381 (dE=-0.169E-03)
 bond charge predicted
       N       E                     dE             d eps       ncg     rms          rms(c)
DAV:   1    -0.341798353644E+03   -0.63224E-04   -0.39833E-02  3760   0.455E-01    0.597E-02
RMM:   2    -0.341798485242E+03   -0.13160E-03   -0.93807E-04  2835   0.755E-02    0.124E-01
RMM:   3    -0.341799460293E+03   -0.97505E-03   -0.13972E-04  2029   0.324E-02    0.610E-01
RMM:   4    -0.341798526888E+03    0.93340E-03   -0.44310E-05  1929   0.243E-02    0.202E-01
RMM:   5    -0.341798411265E+03    0.11562E-03   -0.25152E-05  1820   0.145E-02    0.920E-02
RMM:   6    -0.341798437013E+03   -0.25748E-04   -0.63341E-06  1508   0.896E-03
  32 F= -.34179844E+03 E0= -.34178890E+03  d E =-.225321E-03
 curvature:  -0.44 expect dE=-0.364E-03 dE for cont linesearch -0.751E-05
 ZBRENT: extrapolating
 opt :   0.3694  next Energy=  -341.798445 (dE=-0.234E-03)
 bond charge predicted
       N       E                     dE             d eps       ncg     rms          rms(c)
DAV:   1    -0.341798524472E+03   -0.11321E-03   -0.83248E-03  3744   0.213E-01    0.133E-01
RMM:   2    -0.341861501188E+03   -0.62977E-01   -0.48266E-03  3765   0.106E-01    0.435E+00
RMM:   3    -0.341799868337E+03    0.61633E-01   -0.26225E-03  3548   0.116E-01    0.390E-01
RMM:   4    -0.341798414124E+03    0.14542E-02   -0.86359E-04  3200   0.728E-02    0.179E-01
RMM:   5    -0.341798497679E+03   -0.83556E-04   -0.12933E-04  2050   0.360E-02
  33 F= -.34179850E+03 E0= -.34178889E+03  d E =-.285988E-03
 curvature:  -0.49 expect dE=-0.515E-03 dE for cont linesearch -0.985E-06
 trial: gam= 1.11294 g(F)=  0.105E-02 g(S)=  0.000E+00 ort = 0.726E-04 (trialstep = 0.571E-01)
 search vector abs. value=  0.446E-02
 bond charge predicted
       N       E                     dE             d eps       ncg     rms          rms(c)
DAV:   1    -0.341798557449E+03   -0.14333E-03   -0.74915E-03  3704   0.214E-01    0.122E-01
RMM:   2    -0.341804241554E+03   -0.56841E-02   -0.14919E-03  3665   0.767E-02    0.904E-01
RMM:   3    -0.341804435783E+03   -0.19423E-03   -0.96148E-04  3305   0.567E-02    0.155E+00
RMM:   4    -0.341798537653E+03    0.58981E-02   -0.57094E-04  2687   0.559E-02    0.127E-01
RMM:   5    -0.341798500995E+03    0.36657E-04   -0.97966E-05  1966   0.342E-02
  34 F= -.34179850E+03 E0= -.34178900E+03  d E =-.331570E-05
 trial-energy change:   -0.000003  1 .order   -0.000049   -0.000065   -0.000033
 step:   0.1180(harm=  0.1180)  dis= 0.00029  next Energy=  -341.798565 (dE=-0.669E-04)
 bond charge predicted
       N       E                     dE             d eps       ncg     rms          rms(c)
DAV:   1    -0.341798573788E+03   -0.36136E-04   -0.83040E-03  3752   0.216E-01    0.896E-02
RMM:   2    -0.341815985764E+03   -0.17412E-01   -0.17816E-03  3657   0.684E-02    0.221E+00
RMM:   3    -0.341799024786E+03    0.16961E-01   -0.87017E-04  3207   0.670E-02    0.388E-01
RMM:   4    -0.341798843088E+03    0.18170E-03   -0.34020E-04  2472   0.506E-02    0.285E-01
RMM:   5    -0.341798635074E+03    0.20801E-03   -0.75954E-05  1959   0.274E-02    0.183E-01
RMM:   6    -0.341798616127E+03    0.18947E-04   -0.31706E-05  1839   0.170E-02
  35 F= -.34179862E+03 E0= -.34178915E+03  d E =-.118448E-03
 curvature:  -0.23 expect dE=-0.194E-03 dE for cont linesearch -0.185E-06
 trial: gam= 0.49393 g(F)=  0.835E-03 g(S)=  0.000E+00 ort = 0.596E-04 (trialstep = 0.693E-01)
 search vector abs. value=  0.198E-02
 bond charge predicted
       N       E                     dE             d eps       ncg     rms          rms(c)
DAV:   1    -0.341798625438E+03    0.96362E-05   -0.47069E-03  3616   0.162E-01    0.936E-02
RMM:   2    -0.341825784064E+03   -0.27159E-01   -0.21843E-03  3690   0.746E-02    0.293E+00
RMM:   3    -0.341798807833E+03    0.26976E-01   -0.13438E-03  3456   0.813E-02    0.190E-01
RMM:   4    -0.341798689277E+03    0.11856E-03   -0.27716E-04  2355   0.509E-02    0.171E-01
RMM:   5    -0.341798633416E+03    0.55861E-04   -0.65778E-05  1917   0.273E-02
  36 F= -.34179863E+03 E0= -.34178908E+03  d E =-.172887E-04
 ZBRENT: can't locate minimum, use default step
 trial-energy change:   -0.000017  1 .order   -0.000055   -0.000060   -0.000051
 step:   0.2771(harm=  0.4421)  dis= 0.00065  next Energy=  -341.798807 (dE=-0.191E-03)
 bond charge predicted
       N       E                     dE             d eps       ncg     rms          rms(c)
DAV:   1    -0.341798657185E+03    0.32092E-04   -0.42204E-02  3760   0.479E-01    0.653E-02
RMM:   2    -0.341805364705E+03   -0.67075E-02   -0.16922E-03  3651   0.912E-02    0.135E+00
RMM:   3    -0.341799245334E+03    0.61194E-02   -0.19126E-04  2108   0.463E-02    0.286E-01
RMM:   4    -0.341798700364E+03    0.54497E-03   -0.20229E-04  2141   0.369E-02    0.136E-01
RMM:   5    -0.341798720344E+03   -0.19980E-04   -0.65938E-05  1918   0.247E-02
  37 F= -.34179872E+03 E0= -.34178918E+03  d E =-.104216E-03
 curvature:  -0.41 expect dE=-0.251E-03 dE for cont linesearch -0.168E-05
 trial: gam= 0.88592 g(F)=  0.616E-03 g(S)=  0.000E+00 ort = 0.903E-04 (trialstep = 0.942E-01)
 search vector abs. value=  0.233E-02
 bond charge predicted
       N       E                     dE             d eps       ncg     rms          rms(c)
DAV:   1    -0.341798767588E+03   -0.67224E-04   -0.10609E-02  3760   0.250E-01    0.109E-01
RMM:   2    -0.341802569269E+03   -0.38017E-02   -0.11841E-03  3318   0.657E-02    0.132E+00
RMM:   3    -0.341801752027E+03    0.81724E-03   -0.73278E-04  2947   0.524E-02    0.874E-01
RMM:   4    -0.341798868392E+03    0.28836E-02   -0.24744E-04  2272   0.452E-02    0.210E-01
RMM:   5    -0.341798954247E+03   -0.85855E-04   -0.67772E-05  1952   0.294E-02
  38 F= -.34179895E+03 E0= -.34178948E+03  d E =-.233904E-03
 trial-energy change:   -0.000234  1 .order   -0.000023   -0.000066    0.000020
 step:   0.0723(harm=  0.0723)  dis= 0.00014  next Energy=  -341.798745 (dE=-0.251E-04)
 bond charge predicted
       N       E                     dE             d eps       ncg     rms          rms(c)
DAV:   1    -0.341798755328E+03    0.11306E-03   -0.79653E-04  3704   0.718E-02    0.994E-02
RMM:   2    -0.341831401014E+03   -0.32646E-01   -0.25256E-03  3664   0.764E-02    0.327E+00
RMM:   3    -0.341798926595E+03    0.32474E-01   -0.16392E-03  3504   0.887E-02    0.109E-01
RMM:   4    -0.341798801019E+03    0.12558E-03   -0.31357E-04  2433   0.530E-02    0.168E-01
RMM:   5    -0.341798781313E+03    0.19706E-04   -0.76710E-05  1907   0.290E-02
  39 F= -.34179878E+03 E0= -.34178915E+03  d E =-.609693E-04
 curvature:  -0.12 expect dE=-0.411E-04 dE for cont linesearch -0.980E-06
 ZBRENT: interpolating
 opt :   0.0809  next Energy=  -341.798782 (dE=-0.616E-04)
 bond charge predicted
       N       E                     dE             d eps       ncg     rms          rms(c)
DAV:   1    -0.341798754525E+03    0.46494E-04   -0.16368E-04  2088   0.475E-02    0.420E-02
RMM:   2    -0.341802510412E+03   -0.37559E-02   -0.26975E-04  2355   0.369E-02    0.105E+00
RMM:   3    -0.341798806643E+03    0.37038E-02   -0.12771E-04  2006   0.369E-02    0.140E-01
RMM:   4    -0.341798780396E+03    0.26248E-04   -0.79055E-05  1927   0.260E-02
  40 F= -.34179878E+03 E0= -.34178929E+03  d E =-.600523E-04
 curvature:  -0.07 expect dE=-0.192E-04 dE for cont linesearch -0.297E-06
 ZBRENT: bisectioning
 opt :   0.0876  next Energy=  -341.798781 (dE=-0.606E-04)
 bond charge predicted
       N       E                     dE             d eps       ncg     rms          rms(c)
DAV:   1    -0.341798755465E+03    0.51179E-04   -0.16199E-04  2064   0.400E-02    0.287E-02
RMM:   2    -0.341798902967E+03   -0.14750E-03   -0.58481E-05  1954   0.243E-02    0.180E-01
RMM:   3    -0.341798909504E+03   -0.65379E-05   -0.28631E-05  1808   0.179E-02
  41 F= -.34179891E+03 E0= -.34178928E+03  d E =-.189161E-03
 curvature:  -0.13 expect dE=-0.137E-03 dE for cont linesearch -0.162E-04
 ZBRENT: interpolating
 opt :   0.0923  next Energy=  -341.798954 (dE=-0.234E-03)
 bond charge predicted
       N       E                     dE             d eps       ncg     rms          rms(c)
DAV:   1    -0.341798742484E+03    0.16048E-03   -0.52002E-04  1960   0.573E-02    0.290E-02
RMM:   2    -0.341799820347E+03   -0.10779E-02   -0.87735E-05  1908   0.241E-02    0.516E-01
RMM:   3    -0.341798793472E+03    0.10269E-02   -0.56689E-05  1894   0.252E-02    0.197E-01
RMM:   4    -0.341798812746E+03   -0.19275E-04   -0.33987E-05  1793   0.168E-02
  42 F= -.34179881E+03 E0= -.34178931E+03  d E =-.924028E-04
 curvature:  -0.00 expect dE=-0.687E-06 dE for cont linesearch -0.138E-08
 trial: gam= 0.65636 g(F)=  0.415E-03 g(S)=  0.000E+00 ort =-0.441E-04 (trialstep = 0.939E-01)
 search vector abs. value=  0.136E-02
 bond charge predicted
       N       E                     dE             d eps       ncg     rms          rms(c)
DAV:   1    -0.341798777004E+03    0.16468E-04   -0.65343E-03  3640   0.201E-01    0.227E-02
RMM:   2    -0.341799525179E+03   -0.74818E-03   -0.20457E-04  2085   0.363E-02    0.459E-01
RMM:   3    -0.341798794056E+03    0.73112E-03   -0.33657E-05  1883   0.224E-02    0.699E-02
RMM:   4    -0.341798797165E+03   -0.31090E-05   -0.19621E-05  1798   0.116E-02
  43 F= -.34179880E+03 E0= -.34178926E+03  d E =0.155817E-04
 trial-energy change:    0.000016  1 .order   -0.000026   -0.000036   -0.000016
 step:   0.1684(harm=  0.1684)  dis= 0.00020  next Energy=  -341.798845 (dE=-0.325E-04)
 bond charge predicted
       N       E                     dE             d eps       ncg     rms          rms(c)
DAV:   1    -0.341798813636E+03   -0.19581E-04   -0.40372E-03  3512   0.158E-01    0.244E-02
RMM:   2    -0.341798933696E+03   -0.12006E-03   -0.11952E-04  1974   0.281E-02    0.130E-01
RMM:   3    -0.341798861161E+03    0.72535E-04   -0.31248E-05  1881   0.204E-02
  44 F= -.34179886E+03 E0= -.34178925E+03  d E =-.484149E-04
 curvature:  -0.30 expect dE=-0.195E-03 dE for cont linesearch -0.114E-05
 trial: gam= 1.60920 g(F)=  0.657E-03 g(S)=  0.000E+00 ort = 0.723E-04 (trialstep = 0.335E-01)
 search vector abs. value=  0.442E-02
 bond charge predicted
       N       E                     dE             d eps       ncg     rms          rms(c)
DAV:   1    -0.341798841049E+03    0.92647E-04   -0.28705E-03  3504   0.135E-01    0.620E-02
RMM:   2    -0.341804261668E+03   -0.54206E-02   -0.44897E-04  2710   0.406E-02    0.138E+00
RMM:   3    -0.341799157016E+03    0.51047E-02   -0.40911E-04  2626   0.481E-02    0.337E-01
RMM:   4    -0.341798912841E+03    0.24417E-03   -0.81753E-05  1936   0.355E-02    0.138E-01
RMM:   5    -0.341798839554E+03    0.73287E-04   -0.19108E-05  1687   0.152E-02
  45 F= -.34179884E+03 E0= -.34178925E+03  d E =0.216069E-04
 trial-energy change:    0.000022  1 .order   -0.000020   -0.000026   -0.000015
 step:   0.0765(harm=  0.0765)  dis= 0.00019  next Energy=  -341.798891 (dE=-0.296E-04)
 bond charge predicted
       N       E                     dE             d eps       ncg     rms          rms(c)
DAV:   1    -0.341798880628E+03    0.32213E-04   -0.44088E-03  3504   0.167E-01    0.873E-02
RMM:   2    -0.341816954026E+03   -0.18073E-01   -0.13610E-03  3569   0.631E-02    0.241E+00
RMM:   3    -0.341799173259E+03    0.17781E-01   -0.10996E-03  3350   0.697E-02    0.342E-01
RMM:   4    -0.341799153061E+03    0.20198E-04   -0.17542E-04  2142   0.468E-02
  46 F= -.34179915E+03 E0= -.34178974E+03  d E =-.291900E-03
 curvature:  -0.22 expect dE=-0.193E-03 dE for cont linesearch -0.248E-05
 ZBRENT: interpolating
 opt :   0.0619  next Energy=  -341.799155 (dE=-0.294E-03)
 bond charge predicted
       N       E                     dE             d eps       ncg     rms          rms(c)
DAV:   1    -0.341798874270E+03    0.29899E-03   -0.10194E-03  3904   0.912E-02    0.102E-01
RMM:   2    -0.341806874579E+03   -0.80003E-02   -0.10338E-03  3305   0.608E-02    0.171E+00
RMM:   3    -0.341800482014E+03    0.63926E-02   -0.79098E-04  3109   0.580E-02    0.662E-01
RMM:   4    -0.341798887262E+03    0.15948E-02   -0.27259E-04  2286   0.484E-02    0.776E-02
RMM:   5    -0.341798972077E+03   -0.84815E-04   -0.55667E-05  1892   0.247E-02
  47 F= -.34179897E+03 E0= -.34178932E+03  d E =-.110915E-03
 curvature:  -0.14 expect dE=-0.348E-04 dE for cont linesearch -0.514E-05
 ZBRENT: interpolating
 opt :   0.0712  next Energy=  -341.799154 (dE=-0.292E-03)
 bond charge predicted
       N       E                     dE             d eps       ncg     rms          rms(c)
DAV:   1    -0.341798859251E+03    0.28010E-04   -0.50135E-04  2736   0.665E-02    0.409E-02
RMM:   2    -0.341799162221E+03   -0.30297E-03   -0.14603E-04  2062   0.326E-02    0.291E-01
RMM:   3    -0.341798966252E+03    0.19597E-03   -0.54892E-05  1874   0.240E-02    0.198E-01
RMM:   4    -0.341799085178E+03   -0.11893E-03   -0.35426E-05  1838   0.144E-02    0.263E-01
RMM:   5    -0.341798876524E+03    0.20865E-03   -0.16040E-05  1659   0.144E-02    0.822E-02
RMM:   6    -0.341798860333E+03    0.16191E-04   -0.55558E-06  1257   0.755E-03
  48 F= -.34179886E+03 E0= -.34178931E+03  d E =0.828728E-06
 curvature:  -0.02 expect dE=-0.158E-05 dE for cont linesearch -0.114E-06
 ZBRENT: interpolating
 opt :   0.0735  next Energy=  -341.798861 (dE= 0.628E-06)
 bond charge predicted
       N       E                     dE             d eps       ncg     rms          rms(c)
DAV:   1    -0.341798868204E+03    0.83199E-05   -0.18221E-05  1968   0.137E-02    0.106E-02
RMM:   2    -0.341798997928E+03   -0.12972E-03   -0.93754E-06  1590   0.967E-03    0.184E-01
RMM:   3    -0.341798863216E+03    0.13471E-03   -0.45498E-06  1325   0.783E-03    0.358E-02
RMM:   4    -0.341798871253E+03   -0.80370E-05   -0.34028E-06  1110   0.617E-03
  49 F= -.34179887E+03 E0= -.34178929E+03  d E =-.100913E-04
 curvature:  -0.03 expect dE=-0.302E-05 dE for cont linesearch -0.229E-06
 ZBRENT: bisectioning
 opt :   0.0750  next Energy=  -341.798872 (dE=-0.104E-04)
 bond charge predicted
       N       E                     dE             d eps       ncg     rms          rms(c)
DAV:   1    -0.341798871014E+03   -0.77986E-05   -0.15491E-05  1992   0.119E-02    0.218E-02
RMM:   2    -0.341799236660E+03   -0.36565E-03   -0.37057E-05  1631   0.126E-02    0.387E-01
RMM:   3    -0.341798937647E+03    0.29901E-03   -0.31449E-05  1771   0.178E-02    0.169E-01
RMM:   4    -0.341798869868E+03    0.67779E-04   -0.11170E-05  1641   0.127E-02
  50 F= -.34179887E+03 E0= -.34178932E+03  d E =-.870664E-05
 curvature:  -0.04 expect dE=-0.523E-05 dE for cont linesearch -0.220E-06
 ZBRENT: bisectioning
 opt :   0.0757  next Energy=  -341.798870 (dE=-0.882E-05)
 bond charge predicted
       N       E                     dE             d eps       ncg     rms          rms(c)
DAV:   1    -0.341798869476E+03    0.68171E-04   -0.67278E-06  1944   0.986E-03    0.126E-02
RMM:   2    -0.341799060325E+03   -0.19085E-03   -0.13597E-05  1565   0.878E-03    0.238E-01
RMM:   3    -0.341798865165E+03    0.19516E-03   -0.96901E-06  1522   0.107E-02    0.737E-02
RMM:   4    -0.341798879444E+03   -0.14279E-04   -0.48577E-06  1275   0.694E-03
  51 F= -.34179888E+03 E0= -.34178935E+03  d E =-.182829E-04
 curvature:  -0.02 expect dE=-0.284E-05 dE for cont linesearch -0.709E-07
 ZBRENT: bisectioning
 opt :   0.0761  next Energy=  -341.798879 (dE=-0.183E-04)
 bond charge predicted
       N       E                     dE             d eps       ncg     rms          rms(c)
DAV:   1    -0.341798869457E+03   -0.42914E-05   -0.24390E-05  1944   0.143E-02    0.119E-02
RMM:   2    -0.341798933673E+03   -0.64216E-04   -0.83369E-06  1225   0.686E-03
  52 F= -.34179893E+03 E0= -.34178942E+03  d E =-.725117E-04
 curvature:  -0.01 expect dE=-0.368E-05 dE for cont linesearch -0.315E-06
 ZBRENT: interpolating
 opt :   0.0763  next Energy=  -341.799153 (dE=-0.292E-03)
 bond charge predicted
       N       E                     dE             d eps       ncg     rms          rms(c)
DAV:   1    -0.341798898076E+03   -0.28619E-04   -0.36828E-04  1968   0.404E-02    0.100E-01
RMM:   2    -0.341829830625E+03   -0.30933E-01   -0.20177E-03  3751   0.681E-02    0.313E+00
RMM:   3    -0.341799143742E+03    0.30687E-01   -0.16597E-03  3524   0.855E-02    0.238E-01
RMM:   4    -0.341798954704E+03    0.18904E-03   -0.29796E-04  2404   0.534E-02    0.181E-01
RMM:   5    -0.341798904134E+03    0.50571E-04   -0.60096E-05  1893   0.265E-02
  53 F= -.34179890E+03 E0= -.34178940E+03  d E =-.429723E-04
 curvature:  -0.00 expect dE=-0.755E-07 dE for cont linesearch -0.535E-08
 ZBRENT: interpolating
 opt :   0.0764  next Energy=  -341.798904 (dE=-0.430E-04)
 bond charge predicted
       N       E                     dE             d eps       ncg     rms          rms(c)
DAV:   1    -0.341798867212E+03    0.87492E-04   -0.62407E-05  2064   0.354E-02    0.160E-02
RMM:   2    -0.341798917908E+03   -0.50696E-04   -0.20254E-05  1583   0.119E-02
  54 F= -.34179892E+03 E0= -.34178937E+03  d E =-.567464E-04
 curvature:  -0.00 expect dE=-0.446E-06 dE for cont linesearch -0.872E-12
 trial: gam= 1.08373 g(F)=  0.579E-03 g(S)=  0.000E+00 ort =-0.224E-05 (trialstep = 0.323E-01)
 search vector abs. value=  0.576E-02
 bond charge predicted
       N       E                     dE             d eps       ncg     rms          rms(c)
DAV:   1    -0.341798928411E+03   -0.61199E-04   -0.35408E-03  3504   0.143E-01    0.124E-01
RMM:   2    -0.341847077337E+03   -0.48149E-01   -0.35916E-03  3900   0.927E-02    0.392E+00
RMM:   3    -0.341799619433E+03    0.47458E-01   -0.24398E-03  3550   0.104E-01    0.235E-01
RMM:   4    -0.341798945839E+03    0.67359E-03   -0.48836E-04  2763   0.637E-02    0.195E-01
RMM:   5    -0.341798941623E+03    0.42162E-05   -0.90944E-05  1945   0.313E-02
  55 F= -.34179894E+03 E0= -.34178950E+03  d E =-.237150E-04
 trial-energy change:   -0.000024  1 .order   -0.000012   -0.000019   -0.000005
 step:   0.0448(harm=  0.0448)  dis= 0.00011  next Energy=  -341.798931 (dE=-0.129E-04)
 bond charge predicted
       N       E                     dE             d eps       ncg     rms          rms(c)
DAV:   1    -0.341798890319E+03    0.55519E-04   -0.59679E-04  3624   0.750E-02    0.305E-02
RMM:   2    -0.341801109630E+03   -0.22193E-02   -0.13939E-04  2033   0.272E-02    0.828E-01
RMM:   3    -0.341798869016E+03    0.22406E-02   -0.90352E-05  1911   0.311E-02    0.881E-02
RMM:   4    -0.341798917908E+03   -0.48892E-04   -0.44405E-05  1853   0.201E-02
  56 F= -.34179892E+03 E0= -.34178931E+03  d E =-.367436E-09
 curvature:  -0.22 expect dE=-0.434E-04 dE for cont linesearch -0.465E-06
 ZBRENT: increasing intervall
 opt :   0.0699  next Energy=  -341.798919 (dE=-0.144E-05)
 bond charge predicted
       N       E                     dE             d eps       ncg     rms          rms(c)
DAV:   1    -0.341798896391E+03   -0.27375E-04   -0.20050E-03  3504   0.110E-01    0.345E-02
RMM:   2    -0.341799765765E+03   -0.86937E-03   -0.13220E-04  2042   0.275E-02    0.592E-01
RMM:   3    -0.341799099787E+03    0.66598E-03   -0.85204E-05  1937   0.294E-02    0.267E-01
RMM:   4    -0.341798905844E+03    0.19394E-03   -0.26972E-05  1839   0.202E-02    0.615E-02
RMM:   5    -0.341798895169E+03    0.10675E-04   -0.47029E-06  1341   0.798E-03
  57 F= -.34179890E+03 E0= -.34178936E+03  d E =0.227385E-04
 curvature:  -0.69 expect dE=-0.168E-03 dE for cont linesearch -0.156E-06
 trial: gam= 0.40664 g(F)=  0.244E-03 g(S)=  0.000E+00 ort =-0.361E-04 (trialstep = 0.398E-01)
 search vector abs. value=  0.117E-02
 bond charge predicted
       N       E                     dE             d eps       ncg     rms          rms(c)
DAV:   1    -0.341798919641E+03   -0.13797E-04   -0.98139E-04  3520   0.766E-02    0.559E-02
RMM:   2    -0.341808835866E+03   -0.99162E-02   -0.74460E-04  3033   0.433E-02    0.183E+00
RMM:   3    -0.341798877640E+03    0.99582E-02   -0.46225E-04  2686   0.509E-02    0.622E-02
RMM:   4    -0.341798885801E+03   -0.81606E-05   -0.10878E-04  1964   0.350E-02
  58 F= -.34179889E+03 E0= -.34178929E+03  d E =0.936848E-05
 trial-energy change:    0.000009  1 .order   -0.000008   -0.000009   -0.000006
 step:   0.1324(harm=  0.1324)  dis= 0.00011  next Energy=  -341.798910 (dE=-0.152E-04)
 bond charge predicted
       N       E                     dE             d eps       ncg     rms          rms(c)
DAV:   1    -0.341798938370E+03   -0.60730E-04   -0.54653E-03  3560   0.183E-01    0.526E-02
RMM:   2    -0.341801960563E+03   -0.30222E-02   -0.49212E-04  2768   0.480E-02    0.788E-01
RMM:   3    -0.341799493901E+03    0.24667E-02   -0.19853E-04  2136   0.383E-02    0.492E-01
RMM:   4    -0.341799043274E+03    0.45063E-03   -0.10673E-04  1937   0.329E-02    0.194E-01
RMM:   5    -0.341798908083E+03    0.13519E-03   -0.46344E-05  1832   0.187E-02    0.623E-02
RMM:   6    -0.341798933652E+03   -0.25568E-04   -0.16760E-05  1528   0.119E-02
  59 F= -.34179893E+03 E0= -.34178942E+03  d E =-.384825E-04
 curvature:  -0.34 expect dE=-0.484E-04 dE for cont linesearch -0.182E-05
 ZBRENT: increasing intervall
 opt :   0.3177  next Energy=  -341.798933 (dE=-0.382E-04)
 bond charge predicted
       N       E                     dE             d eps       ncg     rms          rms(c)
DAV:   1    -0.341798916350E+03   -0.82662E-05   -0.20786E-02  3744   0.349E-01    0.547E-02
RMM:   2    -0.341802864173E+03   -0.39478E-02   -0.77909E-04  3103   0.620E-02    0.115E+00
RMM:   3    -0.341799143294E+03    0.37209E-02   -0.26860E-04  2280   0.442E-02    0.307E-01
RMM:   4    -0.341799191495E+03   -0.48201E-04   -0.85392E-05  1936   0.344E-02
  60 F= -.34179919E+03 E0= -.34178980E+03  d E =-.296326E-03
 curvature:   0.04 expect dE= 0.351E-04 dE for cont linesearch  0.315E-06
 ZBRENT: bracketing found
 ZBRENT: interpolating
 opt :   0.2183  next Energy=  -341.798937 (dE=-0.419E-04)
 bond charge predicted
       N       E                     dE             d eps       ncg     rms          rms(c)
DAV:   1    -0.341798918151E+03    0.22514E-03   -0.64841E-03  3552   0.202E-01    0.106E-01
RMM:   2    -0.341805629211E+03   -0.67111E-02   -0.11401E-03  3223   0.641E-02    0.171E+00
RMM:   3    -0.341801397494E+03    0.42317E-02   -0.90780E-04  3128   0.601E-02    0.776E-01
RMM:   4    -0.341798992324E+03    0.24052E-02   -0.23669E-04  2244   0.479E-02    0.899E-02
RMM:   5    -0.341799018458E+03   -0.26134E-04   -0.50343E-05  1902   0.254E-02
  61 F= -.34179902E+03 E0= -.34178949E+03  d E =-.123289E-03
 curvature:  -0.47 expect dE=-0.149E-03 dE for cont linesearch -0.119E-06
 trial: gam= 0.67324 g(F)=  0.316E-03 g(S)=  0.000E+00 ort = 0.172E-04 (trialstep = 0.755E-01)
 search vector abs. value=  0.868E-03
 bond charge predicted
       N       E                     dE             d eps       ncg     rms          rms(c)
DAV:   1    -0.341798974816E+03    0.17508E-04   -0.26541E-03  3560   0.126E-01    0.891E-02
RMM:   2    -0.341828771827E+03   -0.29797E-01   -0.22929E-03  3750   0.767E-02    0.314E+00
RMM:   3    -0.341799482081E+03    0.29290E-01   -0.12725E-03  3427   0.801E-02    0.240E-01
RMM:   4    -0.341798860109E+03    0.62197E-03   -0.26247E-04  2313   0.475E-02    0.142E-01
RMM:   5    -0.341799003608E+03   -0.14350E-03   -0.61821E-05  1889   0.265E-02    0.149E-01
RMM:   6    -0.341798961555E+03    0.42053E-04   -0.24175E-05  1691   0.152E-02
  62 F= -.34179896E+03 E0= -.34178945E+03  d E =0.569030E-04
 trial-energy change:    0.000057  1 .order   -0.000004   -0.000025    0.000017
 step:   0.0449(harm=  0.0449)  dis= 0.00006  next Energy=  -341.799026 (dE=-0.736E-05)
 bond charge predicted
       N       E                     dE             d eps       ncg     rms          rms(c)
DAV:   1    -0.341798987307E+03    0.16301E-04   -0.44566E-04  3496   0.514E-02    0.142E-01
RMM:   2    -0.341833375099E+03   -0.34388E-01   -0.29020E-03  3714   0.805E-02    0.351E+00
RMM:   3    -0.341800413528E+03    0.32962E-01   -0.26460E-03  3585   0.101E-01    0.614E-01
RMM:   4    -0.341799065249E+03    0.13483E-02   -0.36385E-04  2479   0.647E-02    0.110E-01
RMM:   5    -0.341798964676E+03    0.10057E-03   -0.47032E-05  1880   0.240E-02    0.630E-02
RMM:   6    -0.341798962772E+03    0.19037E-05   -0.14887E-05  1646   0.122E-02
  63 F= -.34179896E+03 E0= -.34178945E+03  d E =0.556859E-04
 curvature:  -0.06 expect dE=-0.961E-05 dE for cont linesearch -0.110E-06
 ZBRENT: interpolating
 opt :   0.0400  next Energy=  -341.798963 (dE= 0.556E-04)
 bond charge predicted
       N       E                     dE             d eps       ncg     rms          rms(c)
DAV:   1    -0.341798952504E+03    0.12172E-04   -0.28670E-05  1920   0.174E-02    0.122E-02
RMM:   2    -0.341799079533E+03   -0.12703E-03   -0.14169E-05  1611   0.107E-02    0.169E-01
RMM:   3    -0.341798956474E+03    0.12306E-03   -0.60495E-06  1450   0.821E-03    0.527E-02
RMM:   4    -0.341798953859E+03    0.26144E-05   -0.48541E-06  1164   0.646E-03
  64 F= -.34179895E+03 E0= -.34178946E+03  d E =0.645986E-04
 curvature:  -0.05 expect dE=-0.526E-05 dE for cont linesearch -0.361E-06
 ZBRENT: interpolating
 opt :   0.0433  next Energy=  -341.798963 (dE= 0.557E-04)
 bond charge predicted
       N       E                     dE             d eps       ncg     rms          rms(c)
DAV:   1    -0.341798956285E+03    0.18864E-06   -0.76965E-06  1920   0.900E-03    0.287E-02
RMM:   2    -0.341800016835E+03   -0.10605E-02   -0.86053E-05  1887   0.161E-02    0.653E-01
RMM:   3    -0.341798994252E+03    0.10226E-02   -0.66147E-05  1874   0.244E-02    0.151E-01
RMM:   4    -0.341798954628E+03    0.39624E-04   -0.22558E-05  1726   0.180E-02
  65 F= -.34179895E+03 E0= -.34178945E+03  d E =0.638304E-04
 curvature:  -0.00 expect dE=-0.461E-06 dE for cont linesearch -0.782E-09
 trial: gam= 0.14412 g(F)=  0.929E-04 g(S)=  0.000E+00 ort = 0.117E-04 (trialstep = 0.691E-01)
 search vector abs. value=  0.114E-03
 bond charge predicted
       N       E                     dE             d eps       ncg     rms          rms(c)
DAV:   1    -0.341798964367E+03    0.29885E-04   -0.28375E-04  3168   0.409E-02    0.313E-02
RMM:   2    -0.341801828827E+03   -0.28645E-02   -0.18542E-04  2159   0.255E-02    0.969E-01
RMM:   3    -0.341798923399E+03    0.29054E-02   -0.11449E-04  1937   0.350E-02    0.700E-02
RMM:   4    -0.341798963025E+03   -0.39626E-04   -0.42740E-05  1825   0.215E-02
  66 F= -.34179896E+03 E0= -.34178949E+03  d E =-.839764E-05
 ZBRENT: can't locate minimum, use default step
 trial-energy change:   -0.000008  1 .order   -0.000006   -0.000007   -0.000005
 step:   0.2762(harm=  0.3406)  dis= 0.00034  next Energy=  -341.798971 (dE=-0.161E-04)
 bond charge predicted
       N       E                     dE             d eps       ncg     rms          rms(c)
DAV:   1    -0.341798974067E+03   -0.50668E-04   -0.25395E-03  3576   0.121E-01    0.490E-02
RMM:   2    -0.341803711899E+03   -0.47378E-02   -0.39588E-04  2576   0.405E-02    0.124E+00
RMM:   3    -0.341798974604E+03    0.47373E-02   -0.24059E-04  2192   0.433E-02    0.166E-01
RMM:   4    -0.341799116773E+03   -0.14217E-03   -0.90326E-05  1944   0.311E-02    0.190E-01
RMM:   5    -0.341798979538E+03    0.13724E-03   -0.21683E-05  1753   0.161E-02    0.658E-02
RMM:   6    -0.341798996242E+03   -0.16704E-04   -0.78637E-06  1424   0.817E-03
  67 F= -.34179900E+03 E0= -.34178944E+03  d E =-.416142E-04
 curvature:  -0.19 expect dE=-0.637E-05 dE for cont linesearch -0.188E-06
 trial: gam= 0.30732 g(F)=  0.328E-04 g(S)=  0.000E+00 ort = 0.105E-04 (trialstep = 0.110E+00)
 search vector abs. value=  0.500E-04
 reached required accuracy - stopping structural energy minimisation
