 running on   32 total cores
 distrk:  each k-point on   32 cores,    1 groups
 distr:  one band on    8 cores,    4 groups
 using from now: INCAR     
 vasp.5.4.4.18Apr17-6-g9f103f2a35 (build Jul 24 2019 14:16:20) complex          
  
 POSCAR found type information on POSCAR  Ir O 
 POSCAR found :  2 types and      50 ions
 scaLAPACK is switched off
 LDA part: xc-table for Pade appr. of Perdew
 POSCAR, INCAR and KPOINTS ok, starting setup
 FFT: planning ...
 WAVECAR not read
 entering main loop
       N       E                     dE             d eps       ncg     rms          rms(c)
DAV:   1     0.423230011232E+04    0.42323E+04   -0.16061E+05  7672   0.157E+03
DAV:   2     0.487169721036E+03   -0.37451E+04   -0.34379E+04  8024   0.420E+02
DAV:   3    -0.359123166743E+03   -0.84629E+03   -0.81912E+03 10872   0.194E+02
DAV:   4    -0.415706712379E+03   -0.56584E+02   -0.53969E+02  9848   0.497E+01
DAV:   5    -0.417684479696E+03   -0.19778E+01   -0.19409E+01  9608   0.966E+00    0.131E+02
RMM:   6    -0.386331517919E+03    0.31353E+02   -0.49317E+02  8345   0.471E+01    0.914E+01
RMM:   7    -0.138584117269E+04   -0.99951E+03   -0.14841E+03 11473   0.645E+01    0.295E+02
RMM:   8    -0.154271786983E+04   -0.15688E+03   -0.62132E+02 11722   0.430E+01    0.297E+02
RMM:   9    -0.116442667703E+04    0.37829E+03   -0.30272E+02 10975   0.235E+01    0.288E+02
RMM:  10    -0.457987473314E+03    0.70644E+03   -0.42439E+02  8383   0.343E+01    0.182E+02
RMM:  11    -0.785124405852E+03   -0.32714E+03   -0.43335E+02 10271   0.311E+01    0.295E+02
RMM:  12    -0.767462335425E+03    0.17662E+02   -0.39537E+02  9615   0.329E+01    0.286E+02
RMM:  13    -0.776784995308E+03   -0.93227E+01   -0.86717E+01 10168   0.155E+01    0.292E+02
RMM:  14    -0.742134878724E+03    0.34650E+02   -0.37825E+01  9326   0.708E+00    0.289E+02
RMM:  15    -0.730589889905E+03    0.11545E+02   -0.22542E+01 10396   0.399E+00    0.289E+02
RMM:  16    -0.773377397462E+03   -0.42788E+02   -0.23378E+01 10029   0.379E+00    0.297E+02
RMM:  17    -0.811256463407E+03   -0.37879E+02   -0.24945E+01 10513   0.379E+00    0.304E+02
RMM:  18    -0.588872926923E+03    0.22238E+03   -0.16279E+01  8584   0.579E+00    0.254E+02
RMM:  19    -0.524855155977E+03    0.64018E+02   -0.59278E+00  9112   0.391E+00    0.222E+02
RMM:  20    -0.428131103656E+03    0.96724E+02   -0.61188E+01  8460   0.126E+01    0.183E+02
RMM:  21    -0.635152096750E+03   -0.20702E+03   -0.13473E+02  9356   0.151E+01    0.275E+02
RMM:  22    -0.734082684949E+03   -0.98931E+02   -0.28511E+01  9055   0.786E+00    0.309E+02
RMM:  23    -0.676089810996E+03    0.57993E+02   -0.73004E+00  9893   0.293E+00    0.295E+02
RMM:  24    -0.641722152073E+03    0.34368E+02   -0.23354E+00  9089   0.181E+00    0.287E+02
RMM:  25    -0.646435642333E+03   -0.47135E+01   -0.15216E+00  9211   0.113E+00    0.289E+02
RMM:  26    -0.431657381557E+03    0.21478E+03   -0.16813E+01  8127   0.603E+00    0.183E+02
RMM:  27    -0.542044386348E+03   -0.11039E+03   -0.39321E+01  8549   0.993E+00    0.255E+02
RMM:  28    -0.387422124200E+03    0.15462E+03   -0.13374E+01  7993   0.683E+00    0.133E+02
RMM:  29    -0.399503224215E+03   -0.12081E+02   -0.78108E+00  8144   0.503E+00    0.154E+02
RMM:  30    -0.371789199203E+03    0.27714E+02   -0.94906E+00  8364   0.525E+00    0.121E+02
RMM:  31    -0.359735330308E+03    0.12054E+02   -0.12060E+01  8419   0.595E+00    0.100E+02
RMM:  32    -0.361591622638E+03   -0.18563E+01   -0.12621E+01  8837   0.550E+00    0.968E+01
RMM:  33    -0.362884143100E+03   -0.12925E+01   -0.38918E+00  9367   0.321E+00    0.963E+01
RMM:  34    -0.360222819294E+03    0.26613E+01   -0.33918E-01  9513   0.993E-01    0.936E+01
RMM:  35    -0.358648053390E+03    0.15748E+01   -0.70786E-01  7775   0.140E+00    0.990E+01
RMM:  36    -0.358479975155E+03    0.16808E+00   -0.94332E-02  8218   0.769E-01    0.991E+01
RMM:  37    -0.358487327619E+03   -0.73525E-02   -0.16759E-02  9383   0.195E-01    0.992E+01
RMM:  38    -0.358396594697E+03    0.90733E-01   -0.16106E-02  8391   0.221E-01    0.992E+01
RMM:  39    -0.360645999314E+03   -0.22494E+01   -0.46569E-01  7684   0.129E+00    0.106E+02
RMM:  40    -0.360140612209E+03    0.50539E+00   -0.90642E-02  7673   0.740E-01    0.103E+02
RMM:  41    -0.361134370381E+03   -0.99376E+00   -0.85641E-01  7828   0.174E+00    0.100E+02
RMM:  42    -0.370636162918E+03   -0.95018E+01   -0.19390E+00  8311   0.266E+00    0.109E+02
RMM:  43    -0.366253325957E+03    0.43828E+01   -0.11583E-01  7704   0.848E-01    0.104E+02
RMM:  44    -0.366278442951E+03   -0.25117E-01   -0.17590E-02  8865   0.254E-01    0.104E+02
RMM:  45    -0.370017196325E+03   -0.37388E+01   -0.11316E-01  8014   0.637E-01    0.109E+02
RMM:  46    -0.370124807612E+03   -0.10761E+00   -0.34159E-02  8318   0.364E-01    0.110E+02
RMM:  47    -0.398449424780E+03   -0.28325E+02   -0.31056E+00  8041   0.312E+00    0.142E+02
RMM:  48    -0.400069820983E+03   -0.16204E+01   -0.44439E-01  8397   0.158E+00    0.145E+02
RMM:  49    -0.396647461085E+03    0.34224E+01   -0.13769E-01  9533   0.455E-01    0.140E+02
RMM:  50    -0.377309018275E+03    0.19338E+02   -0.65672E-01  7838   0.134E+00    0.121E+02
RMM:  51    -0.397928861551E+03   -0.20620E+02   -0.23152E+01  7889   0.937E+00    0.143E+02
RMM:  52    -0.398622695597E+03   -0.69383E+00   -0.34978E+00  8585   0.448E+00    0.139E+02
RMM:  53    -0.392546007358E+03    0.60767E+01   -0.71336E-01  9707   0.125E+00    0.128E+02
RMM:  54    -0.382667291482E+03    0.98787E+01   -0.70043E-01  8051   0.167E+00    0.111E+02
RMM:  55    -0.373556156637E+03    0.91111E+01   -0.11589E+00  7940   0.222E+00    0.925E+01
RMM:  56    -0.360086460468E+03    0.13470E+02   -0.27485E+00  7843   0.324E+00    0.768E+01
RMM:  57    -0.360438181525E+03   -0.35172E+00   -0.52737E-01  8155   0.167E+00    0.742E+01
RMM:  58    -0.364815777646E+03   -0.43776E+01   -0.32852E-01  8012   0.118E+00    0.777E+01
RMM:  59    -0.364459812047E+03    0.35597E+00   -0.38077E-02  9137   0.388E-01    0.774E+01
RMM:  60    -0.364751430572E+03   -0.29162E+00   -0.21781E-02  8223   0.289E-01    0.773E+01
RMM:  61    -0.366078129179E+03   -0.13267E+01   -0.13489E+01  7714   0.782E+00    0.904E+01
RMM:  62    -0.357360848992E+03    0.87173E+01   -0.22378E+00  8229   0.331E+00    0.753E+01
RMM:  63    -0.358404346389E+03   -0.10435E+01   -0.25374E+00  8004   0.308E+00    0.747E+01
RMM:  64    -0.358727419216E+03   -0.32307E+00   -0.13292E+00  8246   0.241E+00    0.714E+01
RMM:  65    -0.359389413529E+03   -0.66199E+00   -0.11923E+00  8365   0.208E+00    0.719E+01
RMM:  66    -0.359469498950E+03   -0.80085E-01   -0.11849E+01  7754   0.659E+00    0.660E+01
RMM:  67    -0.356792624512E+03    0.26769E+01   -0.46880E+00  7841   0.441E+00    0.620E+01
RMM:  68    -0.353597261823E+03    0.31954E+01   -0.15140E+00  7757   0.293E+00    0.629E+01
RMM:  69    -0.352049958683E+03    0.15473E+01   -0.10648E+00  8205   0.197E+00    0.645E+01
RMM:  70    -0.353031024900E+03   -0.98107E+00   -0.15347E-01  7767   0.930E-01    0.632E+01
RMM:  71    -0.359069015579E+03   -0.60380E+01   -0.32423E+01  7835   0.117E+01    0.542E+01
RMM:  72    -0.366087393057E+03   -0.70184E+01   -0.68780E+00  8862   0.533E+00    0.699E+01
RMM:  73    -0.366335794220E+03   -0.24840E+00   -0.75470E-01  9564   0.147E+00    0.698E+01
RMM:  74    -0.363736424510E+03    0.25994E+01   -0.54600E-01  7828   0.158E+00    0.644E+01
RMM:  75    -0.362002973643E+03    0.17335E+01   -0.36059E-01  8195   0.132E+00    0.622E+01
RMM:  76    -0.406914395170E+03   -0.44911E+02   -0.29032E+01  7928   0.100E+01    0.134E+02
RMM:  77    -0.408968800001E+03   -0.20544E+01   -0.88513E+00  8637   0.555E+00    0.143E+02
RMM:  78    -0.397744157468E+03    0.11225E+02   -0.14893E+00  8256   0.189E+00    0.127E+02
RMM:  79    -0.388256032773E+03    0.94881E+01   -0.11388E+00  7814   0.224E+00    0.107E+02
RMM:  80    -0.360469067931E+03    0.27787E+02   -0.85862E+00  7716   0.577E+00    0.713E+01
RMM:  81    -0.357099273287E+03    0.33698E+01   -0.10611E+01  7918   0.678E+00    0.616E+01
RMM:  82    -0.344536032602E+03    0.12563E+02   -0.44159E+00  8029   0.451E+00    0.572E+01
RMM:  83    -0.342475901448E+03    0.20601E+01   -0.18366E+00  8901   0.253E+00    0.598E+01
RMM:  84    -0.341671052960E+03    0.80485E+00   -0.52966E-01  8450   0.143E+00    0.585E+01
RMM:  85    -0.341073387352E+03    0.59767E+00   -0.15035E+00  8049   0.226E+00    0.588E+01
RMM:  86    -0.343147100488E+03   -0.20737E+01   -0.62200E+00  7835   0.486E+00    0.562E+01
RMM:  87    -0.342326709809E+03    0.82039E+00   -0.16358E+00  7753   0.276E+00    0.555E+01
RMM:  88    -0.342185982294E+03    0.14073E+00   -0.58044E-01  7888   0.162E+00    0.552E+01
RMM:  89    -0.341732148601E+03    0.45383E+00   -0.15509E+00  7680   0.260E+00    0.531E+01
RMM:  90    -0.341496440669E+03    0.23571E+00   -0.15972E-01  8330   0.102E+00    0.531E+01
RMM:  91    -0.342297542352E+03   -0.80110E+00   -0.25010E+00  7692   0.317E+00    0.533E+01
RMM:  92    -0.342235921511E+03    0.61621E-01   -0.60790E-01  7836   0.185E+00    0.527E+01
RMM:  93    -0.342242488843E+03   -0.65673E-02   -0.10593E-01  8652   0.706E-01    0.527E+01
RMM:  94    -0.342002894347E+03    0.23959E+00   -0.44430E-01  7648   0.142E+00    0.538E+01
RMM:  95    -0.341667266400E+03    0.33563E+00   -0.25586E-01  7812   0.112E+00    0.538E+01
RMM:  96    -0.343596939007E+03   -0.19297E+01   -0.28431E+00  7684   0.346E+00    0.520E+01
RMM:  97    -0.343290026443E+03    0.30691E+00   -0.14658E+00  7737   0.278E+00    0.503E+01
RMM:  98    -0.342241342650E+03    0.10487E+01   -0.70726E-01  7916   0.173E+00    0.499E+01
RMM:  99    -0.342431119798E+03   -0.18978E+00   -0.10037E-01  8542   0.715E-01    0.499E+01
RMM: 100    -0.343546162416E+03   -0.11150E+01   -0.21257E-01  7729   0.915E-01    0.523E+01
RMM: 101    -0.343520575514E+03    0.25587E-01   -0.12573E+00  7798   0.231E+00    0.522E+01
RMM: 102    -0.344049360766E+03   -0.52879E+00   -0.55939E-01  7785   0.165E+00    0.529E+01
RMM: 103    -0.344033076864E+03    0.16284E-01   -0.57186E-02  9039   0.513E-01    0.530E+01
RMM: 104    -0.343933543540E+03    0.99533E-01   -0.25795E-01  7863   0.100E+00    0.520E+01
RMM: 105    -0.343743693764E+03    0.18985E+00   -0.32889E-01  7839   0.123E+00    0.520E+01
RMM: 106    -0.343173052548E+03    0.57064E+00   -0.34719E+00  7773   0.376E+00    0.448E+01
RMM: 107    -0.341002440935E+03    0.21706E+01   -0.22145E+00  7780   0.297E+00    0.405E+01
RMM: 108    -0.339559231461E+03    0.14432E+01   -0.18797E+00  7895   0.301E+00    0.326E+01
RMM: 109    -0.339164627455E+03    0.39460E+00   -0.20818E+00  8065   0.270E+00    0.302E+01
RMM: 110    -0.339161020097E+03    0.36074E-02   -0.12031E+00  8612   0.209E+00    0.251E+01
RMM: 111    -0.338612132279E+03    0.54889E+00   -0.32190E-01  8210   0.125E+00    0.231E+01
RMM: 112    -0.338471958676E+03    0.14017E+00   -0.15313E-01  7765   0.878E-01    0.217E+01
RMM: 113    -0.338560366677E+03   -0.88408E-01   -0.92234E-01  7815   0.184E+00    0.200E+01
RMM: 114    -0.338457639290E+03    0.10273E+00   -0.15674E-01  8092   0.994E-01    0.195E+01
RMM: 115    -0.338692768215E+03   -0.23513E+00   -0.65427E-02  8453   0.443E-01    0.191E+01
RMM: 116    -0.341951927540E+03   -0.32592E+01   -0.12513E+00  7747   0.212E+00    0.278E+01
RMM: 117    -0.340246798552E+03    0.17051E+01   -0.32282E-01  7679   0.119E+00    0.178E+01
RMM: 118    -0.340757008535E+03   -0.51021E+00   -0.52129E-01  7682   0.143E+00    0.139E+01
RMM: 119    -0.340634997607E+03    0.12201E+00   -0.38091E-01  7921   0.123E+00    0.103E+01
RMM: 120    -0.340842860050E+03   -0.20786E+00   -0.14666E-01  8149   0.817E-01    0.935E+00
RMM: 121    -0.341531556629E+03   -0.68870E+00   -0.35693E-01  7660   0.119E+00    0.115E+01
RMM: 122    -0.341794599929E+03   -0.26304E+00   -0.18421E-01  7729   0.829E-01    0.929E+00
RMM: 123    -0.341842671220E+03   -0.48071E-01   -0.11839E-01  7887   0.718E-01    0.870E+00
RMM: 124    -0.341804321403E+03    0.38350E-01   -0.11628E-01  7711   0.728E-01    0.764E+00
RMM: 125    -0.341595552824E+03    0.20877E+00   -0.63219E-02  7851   0.477E-01    0.705E+00
RMM: 126    -0.341107085225E+03    0.48847E+00   -0.59942E-01  7644   0.146E+00    0.635E+00
RMM: 127    -0.341231036582E+03   -0.12395E+00   -0.12181E-01  7782   0.765E-01    0.376E+00
RMM: 128    -0.341388849609E+03   -0.15781E+00   -0.54859E-02  7755   0.511E-01    0.266E+00
RMM: 129    -0.341409804880E+03   -0.20955E-01   -0.17200E-02  8006   0.284E-01    0.165E+00
RMM: 130    -0.341475091075E+03   -0.65286E-01   -0.11246E-02  8241   0.199E-01    0.160E+00
RMM: 131    -0.341544261664E+03   -0.69171E-01   -0.61506E-03  7759   0.161E-01    0.132E+00
RMM: 132    -0.341559098756E+03   -0.14837E-01   -0.33294E-03  7357   0.112E-01    0.993E-01
RMM: 133    -0.341620706187E+03   -0.61607E-01   -0.67504E-03  7487   0.146E-01    0.677E-01
RMM: 134    -0.341670191549E+03   -0.49485E-01   -0.40742E-03  7121   0.109E-01    0.588E-01
RMM: 135    -0.341718559777E+03   -0.48368E-01   -0.36144E-03  6766   0.932E-02    0.462E-01
RMM: 136    -0.341770372259E+03   -0.51812E-01   -0.25125E-03  6437   0.767E-02    0.502E-01
RMM: 137    -0.341858589829E+03   -0.88218E-01   -0.43112E-03  6896   0.952E-02    0.414E-01
RMM: 138    -0.341917982480E+03   -0.59393E-01   -0.17769E-03  6281   0.641E-02    0.324E-01
RMM: 139    -0.341983648095E+03   -0.65666E-01   -0.15361E-03  6179   0.573E-02    0.233E-01
RMM: 140    -0.342019843832E+03   -0.36196E-01   -0.46370E-04  5268   0.425E-02    0.184E-01
RMM: 141    -0.342049726215E+03   -0.29882E-01   -0.22446E-04  4732   0.384E-02    0.216E-01
RMM: 142    -0.342070227709E+03   -0.20501E-01   -0.14959E-04  4512   0.317E-02    0.272E-01
RMM: 143    -0.342104688906E+03   -0.34461E-01   -0.29812E-04  4920   0.372E-02    0.190E-01
RMM: 144    -0.342132411879E+03   -0.27723E-01   -0.38728E-04  5190   0.343E-02    0.120E-01
RMM: 145    -0.342143383137E+03   -0.10971E-01   -0.20321E-04  4735   0.283E-02    0.890E-02
RMM: 146    -0.342147310643E+03   -0.39275E-02   -0.10616E-04  4432   0.225E-02    0.101E-01
RMM: 147    -0.342147235558E+03    0.75085E-04   -0.60166E-05  4288   0.185E-02
   1 F= -.34214724E+03 E0= -.34215025E+03  d E =-.342147E+03  mag=    -1.5653
 curvature:   0.00 expect dE= 0.000E+00 dE for cont linesearch  0.000E+00
 trial: gam= 0.00000 g(F)=  0.633E-01 g(S)=  0.000E+00 ort = 0.000E+00 (trialstep = 0.100E+01)
 search vector abs. value=  0.633E-01
 bond charge predicted
       N       E                     dE             d eps       ncg     rms          rms(c)
DAV:   1    -0.341983043807E+03    0.16427E+00   -0.31978E+01  7736   0.121E+01    0.270E+00
RMM:   2    -0.342168199023E+03   -0.18516E+00   -0.98416E-01  7634   0.228E+00    0.642E+00
RMM:   3    -0.342134209065E+03    0.33990E-01   -0.67345E-02  8846   0.589E-01    0.614E+00
RMM:   4    -0.342114884902E+03    0.19324E-01   -0.30136E-02  8162   0.282E-01    0.544E+00
RMM:   5    -0.342229977958E+03   -0.11509E+00   -0.80564E-02  7688   0.596E-01    0.664E+00
RMM:   6    -0.342149834834E+03    0.80143E-01   -0.54021E-02  7981   0.446E-01    0.636E+00
RMM:   7    -0.342093075303E+03    0.56760E-01   -0.31954E-02  7722   0.372E-01    0.605E+00
RMM:   8    -0.342058877389E+03    0.34198E-01   -0.34925E-02  7825   0.363E-01    0.654E+00
RMM:   9    -0.342022119243E+03    0.36758E-01   -0.27448E-02  7762   0.348E-01    0.799E+00
RMM:  10    -0.342004331248E+03    0.17788E-01   -0.14888E-02  8026   0.246E-01    0.895E+00
RMM:  11    -0.342009952558E+03   -0.56213E-02   -0.10139E-03  6520   0.741E-02    0.849E+00
RMM:  12    -0.342016629184E+03   -0.66766E-02   -0.93420E-03  7611   0.197E-01    0.719E+00
RMM:  13    -0.342015000699E+03    0.16285E-02   -0.10472E-02  7633   0.223E-01    0.600E+00
RMM:  14    -0.342003037824E+03    0.11963E-01   -0.19042E-01  7640   0.913E-01    0.168E+00
RMM:  15    -0.341990469802E+03    0.12568E-01   -0.28485E-02  8072   0.399E-01    0.175E+00
RMM:  16    -0.341990957555E+03   -0.48775E-03   -0.92201E-03  8258   0.173E-01    0.219E+00
RMM:  17    -0.342006386473E+03   -0.15429E-01   -0.50027E-03  7541   0.148E-01    0.162E+00
RMM:  18    -0.342014350360E+03   -0.79639E-02   -0.18635E-03  7198   0.885E-02    0.162E+00
RMM:  19    -0.342020002577E+03   -0.56522E-02   -0.21984E-03  7295   0.957E-02    0.110E+00
RMM:  20    -0.342025051715E+03   -0.50491E-02   -0.20053E-03  7178   0.928E-02    0.496E-01
RMM:  21    -0.342029025407E+03   -0.39737E-02   -0.11972E-03  6567   0.695E-02    0.152E-01
RMM:  22    -0.342031825731E+03   -0.28003E-02   -0.27623E-04  4847   0.349E-02    0.140E-01
RMM:  23    -0.342034423809E+03   -0.25981E-02   -0.24537E-04  4729   0.288E-02    0.616E-02
RMM:  24    -0.342036677756E+03   -0.22539E-02   -0.32256E-04  5012   0.333E-02    0.132E-01
RMM:  25    -0.342038835679E+03   -0.21579E-02   -0.18050E-04  4576   0.265E-02    0.177E-01
RMM:  26    -0.342041176679E+03   -0.23410E-02   -0.81539E-05  4227   0.230E-02    0.636E-02
RMM:  27    -0.342044870419E+03   -0.36937E-02   -0.80178E-05  4181   0.161E-02    0.112E-01
RMM:  28    -0.342049267706E+03   -0.43973E-02   -0.14822E-04  4489   0.207E-02    0.221E-01
RMM:  29    -0.342051965688E+03   -0.26980E-02   -0.37656E-05  3900   0.150E-02    0.166E-01
RMM:  30    -0.342055739004E+03   -0.37733E-02   -0.38608E-05  3876   0.119E-02    0.115E-01
RMM:  31    -0.342059883302E+03   -0.41443E-02   -0.72042E-05  4155   0.191E-02    0.235E-02
RMM:  32    -0.342062741408E+03   -0.28581E-02   -0.25416E-05  3805   0.131E-02    0.195E-02
RMM:  33    -0.342065525044E+03   -0.27836E-02   -0.17680E-05  3428   0.103E-02    0.176E-02
RMM:  34    -0.342068232714E+03   -0.27077E-02   -0.21772E-05  3666   0.987E-03    0.281E-02
RMM:  35    -0.342069225195E+03   -0.99248E-03   -0.12042E-05  2404   0.731E-03    0.115E-02
RMM:  36    -0.342070224887E+03   -0.99969E-03   -0.10393E-05  2777   0.718E-03    0.123E-02
RMM:  37    -0.342071021917E+03   -0.79703E-03   -0.66299E-06  2656   0.690E-03    0.135E-02
RMM:  38    -0.342071109444E+03   -0.87527E-04   -0.36636E-06  1849   0.543E-03
   2 F= -.34207111E+03 E0= -.34207260E+03  d E =0.761261E-01  mag=    -1.8998
 trial-energy change:    0.076126  1 .order    0.075302   -0.063251    0.213855
 step:   0.2251(harm=  0.2283)  dis= 0.00890  next Energy=  -342.154346 (dE=-0.711E-02)
 bond charge predicted
       N       E                     dE             d eps       ncg     rms          rms(c)
DAV:   1    -0.342115502283E+03   -0.44480E-01   -0.19249E+01  7648   0.937E+00    0.182E+00
RMM:   2    -0.342202717434E+03   -0.87215E-01   -0.56894E-01  7613   0.180E+00    0.508E+00
RMM:   3    -0.342160075967E+03    0.42641E-01   -0.35548E-02  8442   0.446E-01    0.421E+00
RMM:   4    -0.342228035203E+03   -0.67959E-01   -0.75035E-03  8274   0.150E-01    0.547E+00
RMM:   5    -0.342280510587E+03   -0.52475E-01   -0.74019E-03  8020   0.184E-01    0.616E+00
RMM:   6    -0.342270904728E+03    0.96059E-02   -0.32382E-03  7628   0.117E-01    0.631E+00
RMM:   7    -0.342198976341E+03    0.71928E-01   -0.17666E-02  7740   0.248E-01    0.447E+00
RMM:   8    -0.342126219587E+03    0.72757E-01   -0.60094E-02  7606   0.470E-01    0.211E+00
RMM:   9    -0.342118910508E+03    0.73091E-02   -0.11030E-02  7666   0.236E-01    0.148E+00
RMM:  10    -0.342121379861E+03   -0.24694E-02   -0.41557E-03  7593   0.134E-01    0.137E+00
RMM:  11    -0.342125691498E+03   -0.43116E-02   -0.22732E-03  7308   0.106E-01    0.102E+00
RMM:  12    -0.342134157722E+03   -0.84662E-02   -0.47510E-03  7465   0.135E-01    0.391E-01
RMM:  13    -0.342136408432E+03   -0.22507E-02   -0.94793E-04  6589   0.728E-02    0.257E-01
RMM:  14    -0.342136977405E+03   -0.56897E-03   -0.22332E-04  4625   0.346E-02    0.124E-01
RMM:  15    -0.342138385794E+03   -0.14084E-02   -0.94403E-05  4263   0.274E-02    0.968E-02
RMM:  16    -0.342139330908E+03   -0.94511E-03   -0.47024E-05  4149   0.193E-02    0.859E-02
RMM:  17    -0.342140800701E+03   -0.14698E-02   -0.42938E-05  4017   0.172E-02    0.554E-02
RMM:  18    -0.342142435489E+03   -0.16348E-02   -0.36216E-05  3881   0.139E-02    0.516E-02
RMM:  19    -0.342144994016E+03   -0.25585E-02   -0.71004E-05  4147   0.150E-02    0.800E-02
RMM:  20    -0.342147738763E+03   -0.27447E-02   -0.72173E-05  4100   0.137E-02    0.587E-02
RMM:  21    -0.342150073149E+03   -0.23344E-02   -0.72178E-05  4039   0.141E-02    0.353E-02
RMM:  22    -0.342152108213E+03   -0.20351E-02   -0.52046E-05  3698   0.121E-02    0.323E-02
RMM:  23    -0.342154127144E+03   -0.20189E-02   -0.67228E-05  3839   0.124E-02    0.336E-02
RMM:  24    -0.342155657117E+03   -0.15300E-02   -0.36410E-05  3338   0.105E-02    0.202E-02
RMM:  25    -0.342157017281E+03   -0.13602E-02   -0.26167E-05  3342   0.963E-03    0.135E-02
RMM:  26    -0.342158264706E+03   -0.12474E-02   -0.20177E-05  2885   0.868E-03    0.155E-02
RMM:  27    -0.342159331461E+03   -0.10668E-02   -0.10233E-05  2535   0.759E-03    0.101E-02
RMM:  28    -0.342160381036E+03   -0.10496E-02   -0.69631E-06  2434   0.658E-03    0.188E-02
RMM:  29    -0.342161024053E+03   -0.64302E-03   -0.38067E-06  1989   0.583E-03    0.116E-02
RMM:  30    -0.342161422007E+03   -0.39795E-03   -0.12507E-06  1388   0.491E-03    0.417E-03
RMM:  31    -0.342161830946E+03   -0.40894E-03   -0.64500E-07  1133   0.457E-03    0.382E-03
RMM:  32    -0.342162045890E+03   -0.21494E-03   -0.69198E-07  1003   0.449E-03    0.354E-03
RMM:  33    -0.342162159016E+03   -0.11313E-03   -0.58534E-07   946   0.442E-03    0.312E-03
RMM:  34    -0.342162239733E+03   -0.80717E-04   -0.59390E-07   922   0.440E-03
   3 F= -.34216224E+03 E0= -.34216472E+03  d E =-.150042E-01  mag=    -1.7510
 curvature:  -0.11 expect dE=-0.312E-02 dE for cont linesearch -0.148E-03
 ZBRENT: interpolating
 opt :   0.1969  next Energy=  -342.162368 (dE=-0.151E-01)
 bond charge predicted
       N       E                     dE             d eps       ncg     rms          rms(c)
DAV:   1    -0.342162375987E+03   -0.21697E-03   -0.25548E-02  8056   0.343E-01    0.735E-02
RMM:   2    -0.342162550921E+03   -0.17493E-03   -0.75505E-04  5381   0.660E-02    0.241E-01
RMM:   3    -0.342162514629E+03    0.36292E-04   -0.49727E-05  3923   0.224E-02
   4 F= -.34216251E+03 E0= -.34216511E+03  d E =-.152791E-01  mag=    -1.7507
 curvature:  -0.10 expect dE=-0.197E-02 dE for cont linesearch -0.246E-05
 trial: gam= 0.29577 g(F)=  0.200E-01 g(S)=  0.000E+00 ort = 0.126E-02 (trialstep = 0.839E+00)
 search vector abs. value=  0.262E-01
 bond charge predicted
       N       E                     dE             d eps       ncg     rms          rms(c)
DAV:   1    -0.342137727620E+03    0.24823E-01   -0.90330E+00  7648   0.664E+00    0.803E-01
RMM:   2    -0.342174208439E+03   -0.36481E-01   -0.25545E-01  7627   0.126E+00    0.158E+00
RMM:   3    -0.342216060326E+03   -0.41852E-01   -0.26132E-02  8387   0.368E-01    0.302E+00
RMM:   4    -0.342169318115E+03    0.46742E-01   -0.10143E-02  7735   0.203E-01    0.136E+00
RMM:   5    -0.342165457014E+03    0.38611E-02   -0.91610E-04  6755   0.944E-02    0.111E+00
RMM:   6    -0.342163665719E+03    0.17913E-02   -0.28139E-04  4902   0.409E-02    0.100E+00
RMM:   7    -0.342163092459E+03    0.57326E-03   -0.24556E-03  7507   0.103E-01    0.921E-01
RMM:   8    -0.342156712403E+03    0.63801E-02   -0.29402E-03  7575   0.114E-01    0.430E-01
RMM:   9    -0.342155979957E+03    0.73245E-03   -0.77332E-04  6582   0.634E-02    0.307E-01
RMM:  10    -0.342156083889E+03   -0.10393E-03   -0.10444E-04  4231   0.288E-02    0.277E-01
RMM:  11    -0.342156163327E+03   -0.79438E-04   -0.61930E-05  4207   0.220E-02
   5 F= -.34215616E+03 E0= -.34215850E+03  d E =0.635130E-02  mag=    -1.7668
 trial-energy change:    0.006351  1 .order    0.001116   -0.017071    0.019302
 step:   0.2443(harm=  0.3939)  dis= 0.00376  next Energy=  -342.164870 (dE=-0.236E-02)
 bond charge predicted
       N       E                     dE             d eps       ncg     rms          rms(c)
DAV:   1    -0.342150686743E+03    0.53971E-02   -0.45289E+00  7640   0.470E+00    0.568E-01
RMM:   2    -0.342174381035E+03   -0.23694E-01   -0.12682E-01  7632   0.883E-01    0.134E+00
RMM:   3    -0.342178667138E+03   -0.42861E-02   -0.11968E-02  8397   0.260E-01    0.160E+00
RMM:   4    -0.342166446095E+03    0.12221E-01   -0.38804E-03  7525   0.128E-01    0.788E-01
RMM:   5    -0.342164940060E+03    0.15060E-02   -0.23455E-04  4747   0.516E-02    0.610E-01
RMM:   6    -0.342165338582E+03   -0.39852E-03   -0.10834E-04  4251   0.298E-02    0.627E-01
RMM:   7    -0.342165975339E+03   -0.63676E-03   -0.11415E-03  6929   0.743E-02    0.548E-01
RMM:   8    -0.342165360547E+03    0.61479E-03   -0.14857E-03  6917   0.754E-02    0.231E-01
RMM:   9    -0.342165230299E+03    0.13025E-03   -0.21057E-04  4509   0.392E-02    0.202E-01
RMM:  10    -0.342165159458E+03    0.70841E-04   -0.62808E-05  4115   0.267E-02
   6 F= -.34216516E+03 E0= -.34216747E+03  d E =-.264483E-02  mag=    -1.7647
 curvature:  -0.23 expect dE=-0.108E-02 dE for cont linesearch -0.389E-03
 ZBRENT: interpolating
 opt :   0.3791  next Energy=  -342.165613 (dE=-0.310E-02)
 bond charge predicted
       N       E                     dE             d eps       ncg     rms          rms(c)
DAV:   1    -0.342164934363E+03    0.29594E-03   -0.23198E-01  7692   0.106E+00    0.154E-01
RMM:   2    -0.342182163208E+03   -0.17229E-01   -0.77774E-03  7723   0.212E-01    0.153E+00
RMM:   3    -0.342165805654E+03    0.16358E-01   -0.13344E-03  7240   0.858E-02    0.165E-01
RMM:   4    -0.342165719365E+03    0.86289E-04   -0.20751E-04  4456   0.406E-02
   7 F= -.34216572E+03 E0= -.34216809E+03  d E =-.320474E-02  mag=    -1.7648
 curvature:  -0.26 expect dE=-0.145E-02 dE for cont linesearch -0.110E-04
 trial: gam= 0.31310 g(F)=  0.553E-02 g(S)=  0.000E+00 ort =-0.105E-02 (trialstep = 0.747E+00)
 search vector abs. value=  0.745E-02
 bond charge predicted
       N       E                     dE             d eps       ncg     rms          rms(c)
DAV:   1    -0.342162952556E+03    0.28531E-02   -0.18061E+00  7632   0.269E+00    0.382E-01
RMM:   2    -0.342167114925E+03   -0.41624E-02   -0.42842E-02  7661   0.518E-01    0.546E-01
RMM:   3    -0.342174926703E+03   -0.78118E-02   -0.34615E-03  8102   0.147E-01    0.109E+00
RMM:   4    -0.342173658818E+03    0.12679E-02   -0.30861E-03  7500   0.964E-02    0.114E+00
RMM:   5    -0.342169039939E+03    0.46189E-02   -0.11224E-03  6966   0.790E-02    0.775E-01
RMM:   6    -0.342167405366E+03    0.16346E-02   -0.62892E-04  6238   0.529E-02    0.543E-01
RMM:   7    -0.342165837343E+03    0.15680E-02   -0.85571E-04  6739   0.617E-02    0.267E-01
RMM:   8    -0.342165397494E+03    0.43985E-03   -0.20651E-04  4483   0.367E-02    0.135E-01
RMM:   9    -0.342165283151E+03    0.11434E-03   -0.59056E-05  4059   0.263E-02    0.104E-01
RMM:  10    -0.342165206992E+03    0.76159E-04   -0.27003E-05  3817   0.142E-02
   8 F= -.34216521E+03 E0= -.34216757E+03  d E =0.512373E-03  mag=    -1.7706
 trial-energy change:    0.000512  1 .order    0.000042   -0.003891    0.003976
 step:   0.3049(harm=  0.3696)  dis= 0.00196  next Energy=  -342.166481 (dE=-0.762E-03)
 bond charge predicted
       N       E                     dE             d eps       ncg     rms          rms(c)
DAV:   1    -0.342164979990E+03    0.30316E-03   -0.63326E-01  7640   0.159E+00    0.211E-01
RMM:   2    -0.342168528128E+03   -0.35481E-02   -0.15258E-02  7635   0.305E-01    0.650E-01
RMM:   3    -0.342168608550E+03   -0.80422E-04   -0.15598E-03  7648   0.920E-02    0.538E-01
RMM:   4    -0.342167812414E+03    0.79614E-03   -0.81863E-04  6655   0.573E-02    0.505E-01
RMM:   5    -0.342167419040E+03    0.39337E-03   -0.23770E-04  4582   0.389E-02    0.457E-01
RMM:   6    -0.342167311960E+03    0.10708E-03   -0.13484E-04  4150   0.324E-02    0.405E-01
RMM:   7    -0.342166819645E+03    0.49231E-03   -0.19588E-04  4351   0.352E-02    0.235E-01
RMM:   8    -0.342166660505E+03    0.15914E-03   -0.15300E-04  4119   0.349E-02    0.764E-02
RMM:   9    -0.342166654627E+03    0.58779E-05   -0.46532E-05  3870   0.225E-02
   9 F= -.34216665E+03 E0= -.34216905E+03  d E =-.935261E-03  mag=    -1.7723
 curvature:  -0.26 expect dE=-0.463E-03 dE for cont linesearch -0.601E-04
 ZBRENT: interpolating
 opt :   0.3929  next Energy=  -342.166713 (dE=-0.993E-03)
 bond charge predicted
       N       E                     dE             d eps       ncg     rms          rms(c)
DAV:   1    -0.342166707435E+03   -0.46930E-04   -0.25310E-02  7688   0.318E-01    0.450E-02
RMM:   2    -0.342166787261E+03   -0.79826E-04   -0.54417E-04  5395   0.616E-02
  10 F= -.34216679E+03 E0= -.34216914E+03  d E =-.106790E-02  mag=    -1.7726
 curvature:  -0.25 expect dE=-0.576E-03 dE for cont linesearch -0.826E-05
 ZBRENT: interpolating
 opt :   0.3688  next Energy=  -342.166793 (dE=-0.107E-02)
 bond charge predicted
       N       E                     dE             d eps       ncg     rms          rms(c)
DAV:   1    -0.342166841001E+03   -0.13357E-03   -0.25707E-03  7392   0.119E-01    0.115E-01
RMM:   2    -0.342196046719E+03   -0.29206E-01   -0.32647E-03  7547   0.913E-02    0.211E+00
RMM:   3    -0.342166887121E+03    0.29160E-01   -0.17639E-03  7175   0.801E-02    0.717E-02
RMM:   4    -0.342166777756E+03    0.10937E-03   -0.20830E-04  4515   0.416E-02    0.531E-02
RMM:   5    -0.342166827082E+03   -0.49326E-04   -0.49476E-05  3858   0.224E-02
  11 F= -.34216683E+03 E0= -.34216920E+03  d E =-.110772E-02  mag=    -1.7731
 curvature:  -0.18 expect dE=-0.393E-03 dE for cont linesearch -0.421E-05
 trial: gam= 0.27020 g(F)=  0.218E-02 g(S)=  0.000E+00 ort = 0.417E-03 (trialstep = 0.672E+00)
 search vector abs. value=  0.295E-02
 bond charge predicted
       N       E                     dE             d eps       ncg     rms          rms(c)
DAV:   1    -0.342165306152E+03    0.14716E-02   -0.69281E-01  7632   0.201E+00    0.168E-01
RMM:   2    -0.342167256374E+03   -0.19502E-02   -0.18097E-02  7575   0.363E-01    0.314E-01
RMM:   3    -0.342167226884E+03    0.29490E-04   -0.94808E-04  6572   0.887E-02
  12 F= -.34216723E+03 E0= -.34216943E+03  d E =-.399802E-03  mag=    -1.7732
 trial-energy change:   -0.000400  1 .order   -0.000011   -0.001539    0.001518
 step:   0.3381(harm=  0.3381)  dis= 0.00141  next Energy=  -342.167214 (dE=-0.387E-03)
 bond charge predicted
       N       E                     dE             d eps       ncg     rms          rms(c)
DAV:   1    -0.342167038017E+03    0.21836E-03   -0.16928E-01  7648   0.991E-01    0.308E-01
RMM:   2    -0.342200651138E+03   -0.33613E-01   -0.91406E-03  7807   0.217E-01    0.217E+00
RMM:   3    -0.342172965068E+03    0.27686E-01   -0.44091E-03  7690   0.129E-01    0.916E-01
RMM:   4    -0.342167948999E+03    0.50161E-02   -0.10373E-03  6969   0.896E-02    0.254E-01
RMM:   5    -0.342167399815E+03    0.54918E-03   -0.13803E-04  4068   0.321E-02    0.106E-01
RMM:   6    -0.342167356479E+03    0.43336E-04   -0.40300E-05  3873   0.214E-02
  13 F= -.34216736E+03 E0= -.34216969E+03  d E =-.529397E-03  mag=    -1.7742
 curvature:  -0.22 expect dE=-0.139E-03 dE for cont linesearch -0.188E-05
 ZBRENT: interpolating
 opt :   0.3602  next Energy=  -342.167358 (dE=-0.531E-03)
 bond charge predicted
       N       E                     dE             d eps       ncg     rms          rms(c)
DAV:   1    -0.342167349788E+03    0.50027E-04   -0.75597E-04  7408   0.712E-02    0.257E-02
RMM:   2    -0.342167457110E+03   -0.10732E-03   -0.47384E-05  3923   0.180E-02    0.126E-01
RMM:   3    -0.342167402520E+03    0.54590E-04   -0.20364E-05  3820   0.145E-02
  14 F= -.34216740E+03 E0= -.34216982E+03  d E =-.575438E-03  mag=    -1.7744
 curvature:  -0.20 expect dE=-0.163E-03 dE for cont linesearch -0.198E-06
 trial: gam= 0.44976 g(F)=  0.803E-03 g(S)=  0.000E+00 ort =-0.536E-04 (trialstep = 0.609E+00)
 search vector abs. value=  0.135E-02
 bond charge predicted
       N       E                     dE             d eps       ncg     rms          rms(c)
DAV:   1    -0.342166757999E+03    0.69911E-03   -0.26261E-01  7672   0.123E+00    0.112E-01
RMM:   2    -0.342167655286E+03   -0.89729E-03   -0.60483E-03  7437   0.205E-01    0.218E-01
RMM:   3    -0.342169980665E+03   -0.23254E-02   -0.61182E-04  6223   0.625E-02    0.666E-01
RMM:   4    -0.342168119250E+03    0.18614E-02   -0.76916E-05  4117   0.308E-02    0.378E-01
RMM:   5    -0.342167789622E+03    0.32963E-03   -0.64568E-05  4044   0.230E-02    0.315E-01
RMM:   6    -0.342167590038E+03    0.19958E-03   -0.52361E-05  3942   0.213E-02    0.218E-01
RMM:   7    -0.342167385048E+03    0.20499E-03   -0.38612E-05  3910   0.172E-02    0.121E-01
RMM:   8    -0.342167337665E+03    0.47383E-04   -0.25954E-05  3627   0.142E-02
  15 F= -.34216734E+03 E0= -.34216968E+03  d E =0.648554E-04  mag=    -1.7750
 trial-energy change:    0.000065  1 .order    0.000008   -0.000475    0.000491
 step:   0.2996(harm=  0.2996)  dis= 0.00130  next Energy=  -342.167519 (dE=-0.117E-03)
 bond charge predicted
       N       E                     dE             d eps       ncg     rms          rms(c)
DAV:   1    -0.342167375546E+03    0.95021E-05   -0.67933E-02  7656   0.625E-01    0.558E-02
RMM:   2    -0.342170286688E+03   -0.29111E-02   -0.17927E-03  7326   0.107E-01    0.648E-01
RMM:   3    -0.342167744865E+03    0.25418E-02   -0.11322E-04  4014   0.366E-02    0.198E-01
RMM:   4    -0.342167701704E+03    0.43161E-04   -0.38755E-05  3899   0.200E-02
  16 F= -.34216770E+03 E0= -.34217023E+03  d E =-.299184E-03  mag=    -1.7752
 curvature:  -0.26 expect dE=-0.168E-03 dE for cont linesearch -0.209E-05
 trial: gam= 0.47999 g(F)=  0.646E-03 g(S)=  0.000E+00 ort = 0.104E-03 (trialstep = 0.547E+00)
 search vector abs. value=  0.106E-02
 bond charge predicted
       N       E                     dE             d eps       ncg     rms          rms(c)
DAV:   1    -0.342167286453E+03    0.45841E-03   -0.16081E-01  7632   0.905E-01    0.189E-01
RMM:   2    -0.342199943424E+03   -0.32657E-01   -0.70841E-03  7793   0.178E-01    0.222E+00
RMM:   3    -0.342169281128E+03    0.30662E-01   -0.32857E-03  7349   0.110E-01    0.513E-01
RMM:   4    -0.342168180221E+03    0.11009E-02   -0.38432E-04  5388   0.632E-02    0.333E-01
RMM:   5    -0.342168083169E+03    0.97052E-04   -0.88110E-05  4096   0.288E-02
  17 F= -.34216808E+03 E0= -.34217078E+03  d E =-.381465E-03  mag=    -1.7753
 trial-energy change:   -0.000381  1 .order   -0.000020   -0.000381    0.000342
 step:   0.2885(harm=  0.2885)  dis= 0.00102  next Energy=  -342.167802 (dE=-0.100E-03)
 bond charge predicted
       N       E                     dE             d eps       ncg     rms          rms(c)
DAV:   1    -0.342167947704E+03    0.23252E-03   -0.36007E-02  7648   0.433E-01    0.250E-01
RMM:   2    -0.342281656590E+03   -0.11371E+00   -0.13536E-02  7988   0.187E-01    0.428E+00
RMM:   3    -0.342168824895E+03    0.11283E+00   -0.82546E-03  7739   0.165E-01    0.318E-01
RMM:   4    -0.342167698532E+03    0.11264E-02   -0.91991E-04  6306   0.851E-02    0.110E-01
RMM:   5    -0.342167713518E+03   -0.14986E-04   -0.10896E-04  4164   0.319E-02
  18 F= -.34216771E+03 E0= -.34217008E+03  d E =-.118141E-04  mag=    -1.7758
 curvature:  -0.22 expect dE=-0.182E-03 dE for cont linesearch -0.340E-05
 ZBRENT: interpolating
 opt :   0.2437  next Energy=  -342.167716 (dE=-0.147E-04)
 bond charge predicted
       N       E                     dE             d eps       ncg     rms          rms(c)
DAV:   1    -0.342167703531E+03   -0.49991E-05   -0.12098E-03  7568   0.906E-02    0.694E-02
RMM:   2    -0.342175039253E+03   -0.73357E-02   -0.85806E-04  6669   0.490E-02    0.101E+00
RMM:   3    -0.342167715404E+03    0.73238E-02   -0.55458E-04  5984   0.470E-02    0.114E-01
RMM:   4    -0.342167705443E+03    0.99606E-05   -0.51767E-05  3871   0.267E-02
  19 F= -.34216771E+03 E0= -.34216999E+03  d E =-.373963E-05  mag=    -1.7760
 curvature:  -0.19 expect dE=-0.109E-03 dE for cont linesearch -0.579E-10
 trial: gam= 0.81278 g(F)=  0.591E-03 g(S)=  0.000E+00 ort =-0.575E-06 (trialstep = 0.399E+00)
 search vector abs. value=  0.129E-02
 bond charge predicted
       N       E                     dE             d eps       ncg     rms          rms(c)
DAV:   1    -0.342167550432E+03    0.16497E-03   -0.10747E-01  7640   0.775E-01    0.102E-01
RMM:   2    -0.342184796049E+03   -0.17246E-01   -0.44462E-03  7732   0.149E-01    0.159E+00
RMM:   3    -0.342167836227E+03    0.16960E-01   -0.10408E-03  6990   0.754E-02    0.146E-01
RMM:   4    -0.342167839915E+03   -0.36885E-05   -0.14473E-04  4214   0.370E-02
  20 F= -.34216784E+03 E0= -.34217040E+03  d E =-.134472E-03  mag=    -1.7761
 trial-energy change:   -0.000134  1 .order   -0.000062   -0.000236    0.000112
 step:   0.2708(harm=  0.2708)  dis= 0.00104  next Energy=  -342.167785 (dE=-0.800E-04)
 bond charge predicted
       N       E                     dE             d eps       ncg     rms          rms(c)
DAV:   1    -0.342167828983E+03    0.72439E-05   -0.11270E-02  7640   0.253E-01    0.156E-01
RMM:   2    -0.342209266396E+03   -0.41437E-01   -0.48671E-03  7911   0.113E-01    0.253E+00
RMM:   3    -0.342168022789E+03    0.41244E-01   -0.30581E-03  7204   0.102E-01    0.180E-01
RMM:   4    -0.342167818103E+03    0.20469E-03   -0.27415E-04  4776   0.546E-02    0.119E-01
RMM:   5    -0.342167775652E+03    0.42451E-04   -0.57156E-05  3876   0.264E-02
  21 F= -.34216778E+03 E0= -.34217020E+03  d E =-.702091E-04  mag=    -1.7762
 curvature:  -0.30 expect dE=-0.127E-03 dE for cont linesearch -0.269E-06
 trial: gam= 0.38296 g(F)=  0.429E-03 g(S)=  0.000E+00 ort = 0.343E-04 (trialstep = 0.374E+00)
 search vector abs. value=  0.645E-03
 bond charge predicted
       N       E                     dE             d eps       ncg     rms          rms(c)
DAV:   1    -0.342167661080E+03    0.15702E-03   -0.42413E-02  7640   0.472E-01    0.621E-02
RMM:   2    -0.342169218891E+03   -0.15578E-02   -0.11807E-03  7019   0.893E-02    0.491E-01
RMM:   3    -0.342167763409E+03    0.14555E-02   -0.88157E-05  3932   0.294E-02    0.144E-01
RMM:   4    -0.342167844160E+03   -0.80751E-04   -0.22551E-05  3786   0.170E-02
  22 F= -.34216784E+03 E0= -.34217007E+03  d E =-.685079E-04  mag=    -1.7763
 trial-energy change:   -0.000069  1 .order    0.000002   -0.000165    0.000170
 step:   0.1841(harm=  0.1841)  dis= 0.00050  next Energy=  -342.167816 (dE=-0.407E-04)
 bond charge predicted
       N       E                     dE             d eps       ncg     rms          rms(c)
DAV:   1    -0.342168101888E+03   -0.33848E-03   -0.11139E-02  7656   0.244E-01    0.238E-01
RMM:   2    -0.342271066280E+03   -0.10296E+00   -0.12052E-02  7993   0.172E-01    0.382E+00
RMM:   3    -0.342168647891E+03    0.10242E+00   -0.71960E-03  7721   0.155E-01    0.213E-01
RMM:   4    -0.342167724542E+03    0.92335E-03   -0.78290E-04  6263   0.795E-02    0.732E-02
RMM:   5    -0.342167841184E+03   -0.11664E-03   -0.11548E-04  4125   0.310E-02    0.918E-02
RMM:   6    -0.342167784101E+03    0.57082E-04   -0.32253E-05  3852   0.186E-02
  23 F= -.34216778E+03 E0= -.34217018E+03  d E =-.844899E-05  mag=    -1.7766
 curvature:  -0.13 expect dE=-0.314E-04 dE for cont linesearch -0.143E-05
 ZBRENT: interpolating
 opt :   0.1551  next Energy=  -342.167785 (dE=-0.965E-05)
 bond charge predicted
       N       E                     dE             d eps       ncg     rms          rms(c)
DAV:   1    -0.342167786694E+03    0.54490E-04   -0.27376E-04  6912   0.397E-02    0.217E-02
RMM:   2    -0.342168226839E+03   -0.44014E-03   -0.62402E-05  3987   0.167E-02    0.254E-01
RMM:   3    -0.342167792781E+03    0.43406E-03   -0.32114E-05  3781   0.173E-02    0.483E-02
RMM:   4    -0.342167803040E+03   -0.10259E-04   -0.87220E-06  3205   0.928E-03
  24 F= -.34216780E+03 E0= -.34217020E+03  d E =-.273880E-04  mag=    -1.7766
 curvature:  -0.11 expect dE=-0.220E-04 dE for cont linesearch -0.389E-08
 trial: gam= 0.38034 g(F)=  0.195E-03 g(S)=  0.000E+00 ort = 0.471E-05 (trialstep = 0.330E+00)
 search vector abs. value=  0.292E-03
 bond charge predicted
       N       E                     dE             d eps       ncg     rms          rms(c)
DAV:   1    -0.342167756125E+03    0.36656E-04   -0.16011E-02  7640   0.299E-01    0.367E-02
RMM:   2    -0.342169227386E+03   -0.14713E-02   -0.50650E-04  5545   0.579E-02    0.475E-01
RMM:   3    -0.342167919675E+03    0.13077E-02   -0.56767E-05  3914   0.270E-02    0.163E-01
RMM:   4    -0.342167815873E+03    0.10380E-03   -0.23453E-05  3816   0.133E-02    0.102E-01
RMM:   5    -0.342167836571E+03   -0.20698E-04   -0.74298E-06  3180   0.886E-03
  25 F= -.34216784E+03 E0= -.34217012E+03  d E =-.335306E-04  mag=    -1.7765
 trial-energy change:   -0.000034  1 .order   -0.000006   -0.000065    0.000052
 step:   0.1830(harm=  0.1830)  dis= 0.00032  next Energy=  -342.167821 (dE=-0.180E-04)
 bond charge predicted
       N       E                     dE             d eps       ncg     rms          rms(c)
DAV:   1    -0.342167852215E+03   -0.36342E-04   -0.32177E-03  7232   0.136E-01    0.848E-02
RMM:   2    -0.342182410045E+03   -0.14558E-01   -0.16867E-03  7456   0.671E-02    0.146E+00
RMM:   3    -0.342167813798E+03    0.14596E-01   -0.96723E-04  6881   0.594E-02    0.495E-02
RMM:   4    -0.342167817022E+03   -0.32236E-05   -0.83968E-05  3969   0.318E-02
  26 F= -.34216782E+03 E0= -.34217024E+03  d E =-.139814E-04  mag=    -1.7764
 curvature:  -0.14 expect dE=-0.192E-04 dE for cont linesearch -0.990E-09
 trial: gam= 0.82106 g(F)=  0.141E-03 g(S)=  0.000E+00 ort =-0.146E-05 (trialstep = 0.261E+00)
 search vector abs. value=  0.336E-03
 bond charge predicted
       N       E                     dE             d eps       ncg     rms          rms(c)
DAV:   1    -0.342167811230E+03    0.25686E-05   -0.10995E-02  7592   0.247E-01    0.316E-02
RMM:   2    -0.342168043564E+03   -0.23233E-03   -0.30105E-04  4683   0.470E-02    0.186E-01
RMM:   3    -0.342167893518E+03    0.15005E-03   -0.51963E-05  3824   0.244E-02    0.958E-02
RMM:   4    -0.342167846923E+03    0.46595E-04   -0.13209E-05  3643   0.123E-02
  27 F= -.34216785E+03 E0= -.34217023E+03  d E =-.299013E-04  mag=    -1.7764
 trial-energy change:   -0.000030  1 .order   -0.000023   -0.000037   -0.000010
 step:   0.3623(harm=  0.3623)  dis= 0.00070  next Energy=  -342.167842 (dE=-0.254E-04)
 bond charge predicted
       N       E                     dE             d eps       ncg     rms          rms(c)
DAV:   1    -0.342167847714E+03    0.45805E-04   -0.16764E-03  7256   0.963E-02    0.411E-02
RMM:   2    -0.342169705953E+03   -0.18582E-02   -0.21861E-04  4492   0.294E-02    0.531E-01
RMM:   3    -0.342167854633E+03    0.18513E-02   -0.13322E-04  3968   0.335E-02    0.808E-02
RMM:   4    -0.342167855412E+03   -0.77957E-06   -0.27335E-05  3712   0.181E-02
  28 F= -.34216786E+03 E0= -.34217021E+03  d E =-.383906E-04  mag=    -1.7763
 curvature:  -0.43 expect dE=-0.113E-03 dE for cont linesearch -0.640E-06
 trial: gam= 1.54230 g(F)=  0.261E-03 g(S)=  0.000E+00 ort = 0.223E-04 (trialstep = 0.837E-01)
 search vector abs. value=  0.113E-02
 bond charge predicted
       N       E                     dE             d eps       ncg     rms          rms(c)
DAV:   1    -0.342167862433E+03   -0.78000E-05   -0.36694E-03  7280   0.133E-01    0.476E-02
RMM:   2    -0.342171207166E+03   -0.33447E-02   -0.40108E-04  5375   0.392E-02    0.697E-01
RMM:   3    -0.342167827359E+03    0.33798E-02   -0.22438E-04  4417   0.376E-02    0.588E-02
RMM:   4    -0.342167865660E+03   -0.38301E-04   -0.47499E-05  3820   0.234E-02
  29 F= -.34216787E+03 E0= -.34217026E+03  d E =-.102472E-04  mag=    -1.7762
 trial-energy change:   -0.000010  1 .order   -0.000021   -0.000025   -0.000017
 step:   0.2620(harm=  0.2620)  dis= 0.00112  next Energy=  -342.167894 (dE=-0.387E-04)
 bond charge predicted
       N       E                     dE             d eps       ncg     rms          rms(c)
DAV:   1    -0.342167836091E+03   -0.87327E-05   -0.16257E-02  7640   0.274E-01    0.423E-02
RMM:   2    -0.342168397310E+03   -0.56122E-03   -0.37818E-04  5038   0.483E-02    0.280E-01
RMM:   3    -0.342167869864E+03    0.52745E-03   -0.71619E-05  3855   0.252E-02    0.833E-02
RMM:   4    -0.342167866197E+03    0.36670E-05   -0.20769E-05  3701   0.149E-02
  30 F= -.34216787E+03 E0= -.34217029E+03  d E =-.107845E-04  mag=    -1.7761
 curvature:  -0.50 expect dE=-0.167E-03 dE for cont linesearch -0.244E-06
 trial: gam= 1.26138 g(F)=  0.334E-03 g(S)=  0.000E+00 ort = 0.235E-04 (trialstep = 0.615E-01)
 search vector abs. value=  0.219E-02
 bond charge predicted
       N       E                     dE             d eps       ncg     rms          rms(c)
DAV:   1    -0.342167880124E+03   -0.10260E-04   -0.40278E-03  7272   0.142E-01    0.672E-02
RMM:   2    -0.342172662454E+03   -0.47823E-02   -0.66909E-04  6149   0.471E-02    0.798E-01
RMM:   3    -0.342168041561E+03    0.46209E-02   -0.35700E-04  5232   0.408E-02    0.186E-01
RMM:   4    -0.342167850675E+03    0.19089E-03   -0.83604E-05  3862   0.288E-02    0.429E-02
RMM:   5    -0.342167867102E+03   -0.16427E-04   -0.23865E-05  3593   0.148E-02
  31 F= -.34216787E+03 E0= -.34217022E+03  d E =-.904634E-06  mag=    -1.7759
 trial-energy change:   -0.000001  1 .order   -0.000017   -0.000022   -0.000012
 step:   0.1371(harm=  0.1371)  dis= 0.00070  next Energy=  -342.167891 (dE=-0.249E-04)
 bond charge predicted
       N       E                     dE             d eps       ncg     rms          rms(c)
DAV:   1    -0.342167842716E+03    0.79593E-05   -0.57647E-03  7280   0.165E-01    0.251E-02
RMM:   2    -0.342167917148E+03   -0.74433E-04   -0.13029E-04  3954   0.295E-02
  32 F= -.34216792E+03 E0= -.34217042E+03  d E =-.509513E-04  mag=    -1.7758
 curvature:  -0.41 expect dE=-0.116E-03 dE for cont linesearch -0.342E-06
 trial: gam= 0.63755 g(F)=  0.281E-03 g(S)=  0.000E+00 ort =-0.426E-04 (trialstep = 0.767E-01)
 search vector abs. value=  0.112E-02
 bond charge predicted
       N       E                     dE             d eps       ncg     rms          rms(c)
DAV:   1    -0.342167883349E+03   -0.40634E-04   -0.40562E-03  7184   0.157E-01    0.927E-02
RMM:   2    -0.342180331087E+03   -0.12448E-01   -0.14651E-03  7268   0.634E-02    0.133E+00
RMM:   3    -0.342167972309E+03    0.12359E-01   -0.99671E-04  6916   0.590E-02    0.154E-01
RMM:   4    -0.342167914070E+03    0.58240E-04   -0.79161E-05  4026   0.319E-02
  33 F= -.34216791E+03 E0= -.34217022E+03  d E =0.307849E-05  mag=    -1.7757
 trial-energy change:    0.000003  1 .order   -0.000017   -0.000019   -0.000014
 step:   0.2771(harm=  0.2771)  dis= 0.00142  next Energy=  -342.167952 (dE=-0.351E-04)
 reached required accuracy - stopping structural energy minimisation
