Ir16 O32                                
   1.00000000000000     
     6.3787260000000003    0.0000000000000000    0.0000000000000000
     0.0000000000000000    6.4179779999999997    0.0000000000000000
     0.0000000000000000    0.0000000000000000   38.5078659999999999
   Ir   O 
    16    33
Selective dynamics
Direct
  0.2500000000000000  0.5000000000000000  0.1250000000000000   F   F   F
  0.7500000000000000  0.5000000000000000  0.1250000000000000   F   F   F
  0.2500000000000000  0.0000000000000000  0.0416669999999968   F   F   F
  0.7500000000000000  0.0000000000000000  0.0416669999999968   F   F   F
  0.0000000000000000  0.5000000000000000  0.0416669999999968   F   F   F
  0.5000000000000000  0.5000000000000000  0.0416669999999968   F   F   F
  0.0000000000000000  0.0000000000000000  0.1250000000000000   F   F   F
  0.5000000000000000  0.0000000000000000  0.1250000000000000   F   F   F
  0.2496031724505169  0.5000000000000000  0.2922595113856105   T   T   T
  0.7503968275494831  0.5000000000000000  0.2922595113856105   T   T   T
  0.2474699525298220 -0.0000000000000000  0.2084632314454223   T   T   T
  0.7525300474701777 -0.0000000000000000  0.2084632314454223   T   T   T
  0.0000000000000000  0.5000000000000000  0.2086353538319587   T   T   T
  0.5000000000000000  0.5000000000000000  0.2086635747797567   T   T   T
  0.0000000000000000 -0.0000000000000000  0.2950855560596121   T   T   T
  0.5000000000000000 -0.0000000000000000  0.2897086354518806   T   T   T
  0.2500000000000000  0.1916080000000022  0.1250000000000000   F   F   F
  0.7500000000000000  0.1916080000000022  0.1250000000000000   F   F   F
  0.2500000000000000  0.6916080000000022  0.0416669999999968   F   F   F
  0.7500000000000000  0.6916080000000022  0.0416669999999968   F   F   F
  0.2500000000000000  0.8083919999999978  0.1250000000000000   F   F   F
  0.7500000000000000  0.8083919999999978  0.1250000000000000   F   F   F
  0.2500000000000000  0.3083919999999978  0.0416669999999968   F   F   F
  0.7500000000000000  0.3083919999999978  0.0416669999999968   F   F   F
  0.0000000000000000  0.5000000000000000  0.0930650000000028   F   F   F
  0.5000000000000000  0.5000000000000000  0.0930650000000028   F   F   F
  0.0000000000000000  0.0000000000000000  0.0097319999999996   F   F   F
  0.5000000000000000  0.0000000000000000  0.0097319999999996   F   F   F
  0.0000000000000000  0.5000000000000000  0.1569349999999972   F   F   F
  0.5000000000000000  0.5000000000000000  0.1569349999999972   F   F   F
  0.0000000000000000  0.0000000000000000  0.0736009999999965   F   F   F
  0.5000000000000000  0.0000000000000000  0.0736009999999965   F   F   F
  0.2506252976006998  0.1907942610537782  0.2921274573822193   T   T   T
  0.7493747023992999  0.1907942610537782  0.2921274573822193   T   T   T
  0.2495651716208848  0.6915925064705233  0.2085103638020669   T   T   T
  0.7504348283791155  0.6915925064705233  0.2085103638020669   T   T   T
  0.2506252976006998  0.8092057389462218  0.2921274573822193   T   T   T
  0.7493747023992999  0.8092057389462218  0.2921274573822193   T   T   T
  0.2495651716208848  0.3084074935294766  0.2085103638020669   T   T   T
  0.7504348283791155  0.3084074935294766  0.2085103638020669   T   T   T
  0.0000000000000000  0.5000000000000000  0.2598021109795390   T   T   T
  0.5000000000000000  0.5000000000000000  0.2599244319879155   T   T   T
  0.0000000000000000 -0.0000000000000000  0.1763348474218469   T   T   T
  0.5000000000000000 -0.0000000000000000  0.1765251698503638   T   T   T
  0.0000000000000000  0.5000000000000000  0.3227037864653858   T   T   T
  0.5000000000000000  0.5000000000000000  0.3228372273021478   T   T   T
  0.0000000000000000 -0.0000000000000000  0.2410414787446377   T   T   T
  0.5000000000000000 -0.0000000000000000  0.2395866066553089   T   T   T
  0.0000000000000000 -0.0000000000000000  0.3415522525756340   T   T   T
 
  0.00000000E+00  0.00000000E+00  0.00000000E+00
  0.00000000E+00  0.00000000E+00  0.00000000E+00
  0.00000000E+00  0.00000000E+00  0.00000000E+00
  0.00000000E+00  0.00000000E+00  0.00000000E+00
  0.00000000E+00  0.00000000E+00  0.00000000E+00
  0.00000000E+00  0.00000000E+00  0.00000000E+00
  0.00000000E+00  0.00000000E+00  0.00000000E+00
  0.00000000E+00  0.00000000E+00  0.00000000E+00
  0.00000000E+00  0.00000000E+00  0.00000000E+00
  0.00000000E+00  0.00000000E+00  0.00000000E+00
  0.00000000E+00  0.00000000E+00  0.00000000E+00
  0.00000000E+00  0.00000000E+00  0.00000000E+00
  0.00000000E+00  0.00000000E+00  0.00000000E+00
  0.00000000E+00  0.00000000E+00  0.00000000E+00
  0.00000000E+00  0.00000000E+00  0.00000000E+00
  0.00000000E+00  0.00000000E+00  0.00000000E+00
  0.00000000E+00  0.00000000E+00  0.00000000E+00
  0.00000000E+00  0.00000000E+00  0.00000000E+00
  0.00000000E+00  0.00000000E+00  0.00000000E+00
  0.00000000E+00  0.00000000E+00  0.00000000E+00
  0.00000000E+00  0.00000000E+00  0.00000000E+00
  0.00000000E+00  0.00000000E+00  0.00000000E+00
  0.00000000E+00  0.00000000E+00  0.00000000E+00
  0.00000000E+00  0.00000000E+00  0.00000000E+00
  0.00000000E+00  0.00000000E+00  0.00000000E+00
  0.00000000E+00  0.00000000E+00  0.00000000E+00
  0.00000000E+00  0.00000000E+00  0.00000000E+00
  0.00000000E+00  0.00000000E+00  0.00000000E+00
  0.00000000E+00  0.00000000E+00  0.00000000E+00
  0.00000000E+00  0.00000000E+00  0.00000000E+00
  0.00000000E+00  0.00000000E+00  0.00000000E+00
  0.00000000E+00  0.00000000E+00  0.00000000E+00
  0.00000000E+00  0.00000000E+00  0.00000000E+00
  0.00000000E+00  0.00000000E+00  0.00000000E+00
  0.00000000E+00  0.00000000E+00  0.00000000E+00
  0.00000000E+00  0.00000000E+00  0.00000000E+00
  0.00000000E+00  0.00000000E+00  0.00000000E+00
  0.00000000E+00  0.00000000E+00  0.00000000E+00
  0.00000000E+00  0.00000000E+00  0.00000000E+00
  0.00000000E+00  0.00000000E+00  0.00000000E+00
  0.00000000E+00  0.00000000E+00  0.00000000E+00
  0.00000000E+00  0.00000000E+00  0.00000000E+00
  0.00000000E+00  0.00000000E+00  0.00000000E+00
  0.00000000E+00  0.00000000E+00  0.00000000E+00
  0.00000000E+00  0.00000000E+00  0.00000000E+00
  0.00000000E+00  0.00000000E+00  0.00000000E+00
  0.00000000E+00  0.00000000E+00  0.00000000E+00
  0.00000000E+00  0.00000000E+00  0.00000000E+00
  0.00000000E+00  0.00000000E+00  0.00000000E+00
