Ir16 O32                                
   1.00000000000000     
     6.3787260000000003    0.0000000000000000    0.0000000000000000
     0.0000000000000000    6.4179779999999997    0.0000000000000000
     0.0000000000000000    0.0000000000000000   38.5078659999999999
   Ir   O 
    16    34
Selective dynamics
Direct
  0.2500000000000000  0.5000000000000000  0.1250000000000000   F   F   F
  0.7500000000000000  0.5000000000000000  0.1250000000000000   F   F   F
  0.2500000000000000  0.0000000000000000  0.0416669999999968   F   F   F
  0.7500000000000000  0.0000000000000000  0.0416669999999968   F   F   F
  0.0000000000000000  0.5000000000000000  0.0416669999999968   F   F   F
  0.5000000000000000  0.5000000000000000  0.0416669999999968   F   F   F
  0.0000000000000000  0.0000000000000000  0.1250000000000000   F   F   F
  0.5000000000000000  0.0000000000000000  0.1250000000000000   F   F   F
  0.2505020527403947  0.5134016418930120  0.2930291898877139   T   T   T
  0.7514245854525371  0.5003595916007654  0.2916492348642534   T   T   T
  0.2465728468752061 -0.0036545085383501  0.2080467021015704   T   T   T
  0.7439767440971560 -0.0029376311720878  0.2078971002341061   T   T   T
 -0.0016930257367230  0.4966269845407912  0.2085314759055622   T   T   T
  0.4976245495004344  0.4954776266146791  0.2085678664358267   T   T   T
  0.0063530806176519  0.0014530900985864  0.2898427148325173   T   T   T
  0.5134180377156071 -0.0054141650189572  0.2944664874654926   T   T   T
  0.2500000000000000  0.1916080000000022  0.1250000000000000   F   F   F
  0.7500000000000000  0.1916080000000022  0.1250000000000000   F   F   F
  0.2500000000000000  0.6916080000000022  0.0416669999999968   F   F   F
  0.7500000000000000  0.6916080000000022  0.0416669999999968   F   F   F
  0.2500000000000000  0.8083919999999978  0.1250000000000000   F   F   F
  0.7500000000000000  0.8083919999999978  0.1250000000000000   F   F   F
  0.2500000000000000  0.3083919999999978  0.0416669999999968   F   F   F
  0.7500000000000000  0.3083919999999978  0.0416669999999968   F   F   F
  0.0000000000000000  0.5000000000000000  0.0930650000000028   F   F   F
  0.5000000000000000  0.5000000000000000  0.0930650000000028   F   F   F
  0.0000000000000000  0.0000000000000000  0.0097319999999996   F   F   F
  0.5000000000000000  0.0000000000000000  0.0097319999999996   F   F   F
  0.0000000000000000  0.5000000000000000  0.1569349999999972   F   F   F
  0.5000000000000000  0.5000000000000000  0.1569349999999972   F   F   F
  0.0000000000000000  0.0000000000000000  0.0736009999999965   F   F   F
  0.5000000000000000  0.0000000000000000  0.0736009999999965   F   F   F
  0.2459533780429951  0.1961692698901814  0.3027652871895907   T   T   T
  0.7559867918051179  0.1898798586584945  0.2907346327074608   T   T   T
  0.2481599548172414  0.6872870771773690  0.2079884878968249   T   T   T
  0.7459349490203026  0.6875347330692091  0.2078386409273751   T   T   T
  0.2597084395597241  0.8163750849254575  0.2891041340090665   T   T   T
  0.7559372931012998  0.8073564594529651  0.2874657129370048   T   T   T
  0.2466849842921881  0.3046230872054083  0.2084593796122389   T   T   T
  0.7477727522493404  0.3047890435405624  0.2084053906973280   T   T   T
  0.0037853936487753  0.4941992566284471  0.2598074430703130   T   T   T
  0.4970830777018415  0.4900624946481278  0.2597828486988805   T   T   T
 -0.0032298275665062 -0.0028965213134736  0.1761922447800300   T   T   T
  0.4958116625302803  0.0003992637994668  0.1763900887502481   T   T   T
 -0.0028409402955873  0.5278786212835677  0.3225925639052007   T   T   T
  0.5029983970133913  0.5071997411555279  0.3225503043113138   T   T   T
 -0.0069600485639932 -0.0140002853458036  0.2386227491099125   T   T   T
  0.4950003048192887  0.0006036761908085  0.2406965712375721   T   T   T
  0.1288808307563188  0.1282095325570943  0.3337818529625005   T   T   T
  0.5277563634498147 -0.0064414213316507  0.3405375441373341   T   T   T
 
  0.00000000E+00  0.00000000E+00  0.00000000E+00
  0.00000000E+00  0.00000000E+00  0.00000000E+00
  0.00000000E+00  0.00000000E+00  0.00000000E+00
  0.00000000E+00  0.00000000E+00  0.00000000E+00
  0.00000000E+00  0.00000000E+00  0.00000000E+00
  0.00000000E+00  0.00000000E+00  0.00000000E+00
  0.00000000E+00  0.00000000E+00  0.00000000E+00
  0.00000000E+00  0.00000000E+00  0.00000000E+00
  0.00000000E+00  0.00000000E+00  0.00000000E+00
  0.00000000E+00  0.00000000E+00  0.00000000E+00
  0.00000000E+00  0.00000000E+00  0.00000000E+00
  0.00000000E+00  0.00000000E+00  0.00000000E+00
  0.00000000E+00  0.00000000E+00  0.00000000E+00
  0.00000000E+00  0.00000000E+00  0.00000000E+00
  0.00000000E+00  0.00000000E+00  0.00000000E+00
  0.00000000E+00  0.00000000E+00  0.00000000E+00
  0.00000000E+00  0.00000000E+00  0.00000000E+00
  0.00000000E+00  0.00000000E+00  0.00000000E+00
  0.00000000E+00  0.00000000E+00  0.00000000E+00
  0.00000000E+00  0.00000000E+00  0.00000000E+00
  0.00000000E+00  0.00000000E+00  0.00000000E+00
  0.00000000E+00  0.00000000E+00  0.00000000E+00
  0.00000000E+00  0.00000000E+00  0.00000000E+00
  0.00000000E+00  0.00000000E+00  0.00000000E+00
  0.00000000E+00  0.00000000E+00  0.00000000E+00
  0.00000000E+00  0.00000000E+00  0.00000000E+00
  0.00000000E+00  0.00000000E+00  0.00000000E+00
  0.00000000E+00  0.00000000E+00  0.00000000E+00
  0.00000000E+00  0.00000000E+00  0.00000000E+00
  0.00000000E+00  0.00000000E+00  0.00000000E+00
  0.00000000E+00  0.00000000E+00  0.00000000E+00
  0.00000000E+00  0.00000000E+00  0.00000000E+00
  0.00000000E+00  0.00000000E+00  0.00000000E+00
  0.00000000E+00  0.00000000E+00  0.00000000E+00
  0.00000000E+00  0.00000000E+00  0.00000000E+00
  0.00000000E+00  0.00000000E+00  0.00000000E+00
  0.00000000E+00  0.00000000E+00  0.00000000E+00
  0.00000000E+00  0.00000000E+00  0.00000000E+00
  0.00000000E+00  0.00000000E+00  0.00000000E+00
  0.00000000E+00  0.00000000E+00  0.00000000E+00
  0.00000000E+00  0.00000000E+00  0.00000000E+00
  0.00000000E+00  0.00000000E+00  0.00000000E+00
  0.00000000E+00  0.00000000E+00  0.00000000E+00
  0.00000000E+00  0.00000000E+00  0.00000000E+00
  0.00000000E+00  0.00000000E+00  0.00000000E+00
  0.00000000E+00  0.00000000E+00  0.00000000E+00
  0.00000000E+00  0.00000000E+00  0.00000000E+00
  0.00000000E+00  0.00000000E+00  0.00000000E+00
  0.00000000E+00  0.00000000E+00  0.00000000E+00
  0.00000000E+00  0.00000000E+00  0.00000000E+00
