Ir16 O32
1.0
6.378726 0.000000 0.000000
0.000000 6.417978 0.000000
0.000000 0.000000 38.507866
Ir O 
16 34
selective dynamics
direct
0.250000 0.500000 0.125000 F F F
0.750000 0.500000 0.125000 F F F
0.250000 0.000000 0.041667 F F F
0.750000 0.000000 0.041667 F F F
0.000000 0.500000 0.041667 F F F
0.500000 0.500000 0.041667 F F F
0.000000 0.000000 0.125000 F F F
0.500000 0.000000 0.125000 F F F
0.250000 0.500000 0.291667 T T T
0.750000 0.500000 0.291667 T T T
0.250000 0.000000 0.208333 T T T
0.750000 0.000000 0.208333 T T T
0.000000 0.500000 0.208333 T T T
0.500000 0.500000 0.208333 T T T
0.000000 1.000000 0.291667 T T T
0.500000 1.000000 0.291667 T T T
0.250000 0.191608 0.125000 F F F
0.750000 0.191608 0.125000 F F F
0.250000 0.691608 0.041667 F F F
0.750000 0.691608 0.041667 F F F
0.250000 0.808392 0.125000 F F F
0.750000 0.808392 0.125000 F F F
0.250000 0.308392 0.041667 F F F
0.750000 0.308392 0.041667 F F F
0.000000 0.500000 0.093065 F F F
0.500000 0.500000 0.093065 F F F
0.000000 1.000000 0.009732 F F F
0.500000 1.000000 0.009732 F F F
0.000000 0.500000 0.156935 F F F
0.500000 0.500000 0.156935 F F F
0.000000 1.000000 0.073601 F F F
0.500000 1.000000 0.073601 F F F
0.250000 0.191608 0.291667 T T T
0.750000 0.191608 0.291667 T T T
0.250000 0.691608 0.208333 T T T
0.750000 0.691608 0.208333 T T T
0.250000 0.808392 0.291667 T T T
0.750000 0.808392 0.291667 T T T
0.250000 0.308392 0.208333 T T T
0.750000 0.308392 0.208333 T T T
0.000000 0.500000 0.259732 T T T
0.500000 0.500000 0.259732 T T T
0.000000 1.000000 0.176399 T T T
0.500000 1.000000 0.176399 T T T
1.000000 0.500000 0.323601 T T T
0.500000 0.500000 0.323601 T T T
0.000000 1.000000 0.240268 T T T
0.500000 1.000000 0.240268 T T T
0.120000 0.120000 0.320000 T T T
0.500000 0.000000 0.330000 T T T
