 running on   32 total cores
 distrk:  each k-point on   32 cores,    1 groups
 distr:  one band on    8 cores,    4 groups
 using from now: INCAR     
 vasp.5.4.4.18Apr17-6-g9f103f2a35 (build Jul 24 2019 14:16:20) complex          
  
 POSCAR found type information on POSCAR  Ir O 
 POSCAR found :  2 types and      50 ions
 scaLAPACK is switched off
 LDA part: xc-table for Pade appr. of Perdew
 POSCAR, INCAR and KPOINTS ok, starting setup
 FFT: planning ...
 WAVECAR not read
 entering main loop
       N       E                     dE             d eps       ncg     rms          rms(c)
DAV:   1     0.427838985809E+04    0.42784E+04   -0.16133E+05  7568   0.160E+03
DAV:   2     0.518633610056E+03   -0.37598E+04   -0.34698E+04  7872   0.429E+02
DAV:   3    -0.346607438555E+03   -0.86524E+03   -0.83930E+03 10864   0.199E+02
DAV:   4    -0.406590774675E+03   -0.59983E+02   -0.57065E+02  9776   0.506E+01
DAV:   5    -0.408781301179E+03   -0.21905E+01   -0.21420E+01  9512   0.980E+00    0.150E+02
RMM:   6    -0.370009942363E+03    0.38771E+02   -0.51240E+02  8288   0.489E+01    0.911E+01
RMM:   7    -0.122503093802E+04   -0.85502E+03   -0.14670E+03 11579   0.669E+01    0.274E+02
RMM:   8    -0.129992033628E+04   -0.74889E+02   -0.54450E+02 11888   0.423E+01    0.263E+02
RMM:   9    -0.471399232497E+03    0.82852E+03   -0.22857E+02  7884   0.282E+01    0.183E+02
RMM:  10    -0.386269122839E+03    0.85130E+02   -0.85725E+01  8242   0.194E+01    0.798E+01
RMM:  11    -0.414099205108E+03   -0.27830E+02   -0.22889E+02  8735   0.282E+01    0.110E+02
RMM:  12    -0.402369800384E+03    0.11729E+02   -0.35014E+01  9751   0.847E+00    0.114E+02
RMM:  13    -0.469819928039E+03   -0.67450E+02   -0.28020E+01  9048   0.636E+00    0.129E+02
RMM:  14    -0.575198890223E+03   -0.10538E+03   -0.60913E+01  9425   0.914E+00    0.191E+02
RMM:  15    -0.423760865543E+03    0.15144E+03   -0.32194E+01  7855   0.113E+01    0.119E+02
RMM:  16    -0.400235875759E+03    0.23525E+02   -0.56373E+00  9044   0.410E+00    0.103E+02
RMM:  17    -0.352439558106E+03    0.47796E+02   -0.22858E+01  8209   0.868E+00    0.714E+01
RMM:  18    -0.345345396309E+03    0.70942E+01   -0.72669E+00  7896   0.572E+00    0.519E+01
RMM:  19    -0.341754397595E+03    0.35910E+01   -0.38261E+00  8820   0.360E+00    0.485E+01
RMM:  20    -0.343603090640E+03   -0.18487E+01   -0.11052E+00  8165   0.212E+00    0.471E+01
RMM:  21    -0.340382276584E+03    0.32208E+01   -0.12141E+00  8164   0.203E+00    0.457E+01
RMM:  22    -0.341489724178E+03   -0.11074E+01   -0.31481E-01  8014   0.121E+00    0.439E+01
RMM:  23    -0.340566200107E+03    0.92352E+00   -0.40929E-01  8543   0.111E+00    0.431E+01
RMM:  24    -0.342234133693E+03   -0.16679E+01   -0.23323E-01  8779   0.903E-01    0.435E+01
RMM:  25    -0.342710492875E+03   -0.47636E+00   -0.10585E-01  9361   0.605E-01    0.443E+01
RMM:  26    -0.344817781127E+03   -0.21073E+01   -0.12203E-01  8446   0.627E-01    0.475E+01
RMM:  27    -0.350295497825E+03   -0.54777E+01   -0.36795E-01  8277   0.105E+00    0.539E+01
RMM:  28    -0.349599716309E+03    0.69578E+00   -0.39959E-02  8578   0.433E-01    0.535E+01
RMM:  29    -0.359612386456E+03   -0.10013E+02   -0.47994E-01  8080   0.112E+00    0.661E+01
RMM:  30    -0.360994453316E+03   -0.13821E+01   -0.10261E-01  8744   0.645E-01    0.679E+01
RMM:  31    -0.359770117621E+03    0.12243E+01   -0.26621E-02  8354   0.299E-01    0.667E+01
RMM:  32    -0.360373181235E+03   -0.60306E+00   -0.11114E-01  7923   0.622E-01    0.688E+01
RMM:  33    -0.363264570041E+03   -0.28914E+01   -0.71626E-01  7887   0.161E+00    0.763E+01
RMM:  34    -0.365661641083E+03   -0.23971E+01   -0.17564E-01  9011   0.741E-01    0.791E+01
RMM:  35    -0.367904578173E+03   -0.22429E+01   -0.93057E-02  9302   0.456E-01    0.805E+01
RMM:  36    -0.367754604128E+03    0.14997E+00   -0.90385E-03  8501   0.188E-01    0.797E+01
RMM:  37    -0.367386049293E+03    0.36855E+00   -0.15068E-02  7840   0.242E-01    0.804E+01
RMM:  38    -0.365780409524E+03    0.16056E+01   -0.14144E-01  7807   0.742E-01    0.813E+01
RMM:  39    -0.365004862783E+03    0.77555E+00   -0.13873E-02  7629   0.268E-01    0.798E+01
RMM:  40    -0.363976791170E+03    0.10281E+01   -0.73431E-02  7737   0.512E-01    0.777E+01
RMM:  41    -0.363400881767E+03    0.57591E+00   -0.10816E-01  8254   0.631E-01    0.761E+01
RMM:  42    -0.363713307903E+03   -0.31243E+00   -0.48105E-02  8693   0.412E-01    0.764E+01
RMM:  43    -0.364206513900E+03   -0.49321E+00   -0.58699E-03  7556   0.164E-01    0.772E+01
RMM:  44    -0.359248148913E+03    0.49584E+01   -0.62787E-01  7713   0.153E+00    0.689E+01
RMM:  45    -0.353955408083E+03    0.52927E+01   -0.40361E-01  8509   0.118E+00    0.628E+01
RMM:  46    -0.352347319529E+03    0.16081E+01   -0.18515E-01  8494   0.797E-01    0.626E+01
RMM:  47    -0.348439523255E+03    0.39078E+01   -0.57186E-01  7936   0.146E+00    0.560E+01
RMM:  48    -0.346476982622E+03    0.19625E+01   -0.21133E-01  9182   0.784E-01    0.531E+01
RMM:  49    -0.343838300917E+03    0.26387E+01   -0.13283E-01  8161   0.632E-01    0.485E+01
RMM:  50    -0.341841880840E+03    0.19964E+01   -0.96395E-02  8601   0.579E-01    0.450E+01
RMM:  51    -0.336088271258E+03    0.57536E+01   -0.56075E+00  7823   0.426E+00    0.297E+01
RMM:  52    -0.335627139711E+03    0.46113E+00   -0.62369E-01  8448   0.193E+00    0.274E+01
RMM:  53    -0.335711329489E+03   -0.84190E-01   -0.16624E-01 10034   0.495E-01    0.278E+01
RMM:  54    -0.335666558617E+03    0.44771E-01   -0.11120E-02  9144   0.159E-01    0.277E+01
RMM:  55    -0.335679405752E+03   -0.12847E-01   -0.20271E-03  7500   0.564E-02    0.277E+01
RMM:  56    -0.335830369318E+03   -0.15096E+00   -0.82700E-01  7641   0.188E+00    0.235E+01
RMM:  57    -0.335637336075E+03    0.19303E+00   -0.13627E-01  8290   0.847E-01    0.224E+01
RMM:  58    -0.335281248901E+03    0.35609E+00   -0.11482E-01  8849   0.601E-01    0.211E+01
RMM:  59    -0.335674865346E+03   -0.39362E+00   -0.17909E-01  8272   0.845E-01    0.235E+01
RMM:  60    -0.336624711560E+03   -0.94985E+00   -0.14766E-01  8487   0.707E-01    0.271E+01
RMM:  61    -0.337126270283E+03   -0.50156E+00   -0.16292E-01  7591   0.898E-01    0.292E+01
RMM:  62    -0.336296419438E+03    0.82985E+00   -0.80777E-02  7676   0.591E-01    0.258E+01
RMM:  63    -0.335854077662E+03    0.44234E+00   -0.72400E-02  7862   0.585E-01    0.246E+01
RMM:  64    -0.335438918626E+03    0.41516E+00   -0.62480E-02  8866   0.498E-01    0.235E+01
RMM:  65    -0.335339752708E+03    0.99166E-01   -0.25262E-02  8959   0.293E-01    0.239E+01
RMM:  66    -0.334962500554E+03    0.37725E+00   -0.52021E-02  8270   0.438E-01    0.233E+01
RMM:  67    -0.334670125980E+03    0.29237E+00   -0.56158E-02  8667   0.415E-01    0.221E+01
RMM:  68    -0.334402079802E+03    0.26805E+00   -0.43993E-02  8923   0.351E-01    0.216E+01
RMM:  69    -0.334181260554E+03    0.22082E+00   -0.25849E-02  8549   0.269E-01    0.199E+01
RMM:  70    -0.334047535276E+03    0.13373E+00   -0.98949E-03  8689   0.197E-01    0.190E+01
RMM:  71    -0.334111809583E+03   -0.64274E-01   -0.60319E-02  8064   0.476E-01    0.191E+01
RMM:  72    -0.333932485376E+03    0.17932E+00   -0.13922E-02  7581   0.249E-01    0.171E+01
RMM:  73    -0.333819437115E+03    0.11305E+00   -0.11818E-02  8272   0.221E-01    0.161E+01
RMM:  74    -0.333699074382E+03    0.12036E+00   -0.11281E-02  8201   0.215E-01    0.151E+01
RMM:  75    -0.333675235183E+03    0.23839E-01   -0.20892E-02  8539   0.290E-01    0.155E+01
RMM:  76    -0.333869858095E+03   -0.19462E+00   -0.25175E-02  7694   0.328E-01    0.166E+01
RMM:  77    -0.333882367035E+03   -0.12509E-01   -0.53581E-03  8324   0.162E-01    0.164E+01
RMM:  78    -0.333822260111E+03    0.60107E-01   -0.26775E-03  7902   0.101E-01    0.161E+01
RMM:  79    -0.333820493791E+03    0.17663E-02   -0.21454E-04  4675   0.386E-02    0.160E+01
RMM:  80    -0.333820478452E+03    0.15339E-04   -0.68004E-05  4168   0.223E-02
   1 F= -.33382048E+03 E0= -.33381571E+03  d E =-.333820E+03
 curvature:   0.00 expect dE= 0.000E+00 dE for cont linesearch  0.000E+00
 trial: gam= 0.00000 g(F)=  0.295E+03 g(S)=  0.000E+00 ort = 0.000E+00 (trialstep = 0.100E+01)
 search vector abs. value=  0.295E+03
 bond charge predicted
       N       E                     dE             d eps       ncg     rms          rms(c)
DAV:   1     0.131102187721E+03    0.46492E+03   -0.70490E+03  8280   0.197E+02    0.481E+02
RMM:   2    -0.303130873614E+03   -0.43423E+03   -0.22630E+03 11710   0.951E+01    0.364E+02
RMM:   3    -0.215990781370E+04   -0.18568E+04   -0.46760E+03 12666   0.139E+02    0.398E+02
RMM:   4    -0.802492754639E+03    0.13574E+04   -0.15491E+03 12987   0.968E+01    0.245E+02
RMM:   5    -0.514169369388E+03    0.28832E+03   -0.35971E+03 13638   0.141E+02    0.290E+02
RMM:   6    -0.137627192191E+03    0.37654E+03   -0.10782E+03 12741   0.847E+01    0.188E+02
RMM:   7    -0.690455812097E+03   -0.55283E+03   -0.21566E+03 13517   0.110E+02    0.194E+02
RMM:   8    -0.146350214726E+03    0.54411E+03   -0.84970E+02 13154   0.627E+01    0.170E+02
RMM:   9    -0.774443822342E+02    0.68906E+02   -0.34348E+02 13071   0.434E+01    0.166E+02
RMM:  10    -0.673942589954E+02    0.10050E+02   -0.15282E+02 12898   0.306E+01    0.159E+02
RMM:  11    -0.723678109814E+02   -0.49736E+01   -0.64050E+01 13058   0.198E+01    0.164E+02
RMM:  12    -0.591551272410E+02    0.13213E+02    0.37904E+01 12744   0.163E+01    0.162E+02
RMM:  13    -0.529878194955E+02    0.61673E+01    0.73968E+01 12778   0.125E+01    0.153E+02
RMM:  14    -0.348572970380E+02    0.18131E+02   -0.24490E+01 11485   0.207E+01    0.140E+02
RMM:  15    -0.161497354491E+03   -0.12664E+03   -0.22023E+02 11866   0.252E+01    0.194E+02
RMM:  16    -0.456761093602E+02    0.11582E+03   -0.69600E+01  8197   0.147E+01    0.134E+02
RMM:  17    -0.271991031474E+03   -0.22631E+03   -0.20208E+02 10066   0.184E+01    0.272E+02
RMM:  18    -0.264842494906E+03    0.71485E+01   -0.10312E+02 10268   0.120E+01    0.253E+02
RMM:  19    -0.221677647665E+03    0.43165E+02   -0.61301E+01 10662   0.686E+00    0.243E+02
RMM:  20    -0.218409980614E+03    0.32677E+01   -0.50023E+01 10717   0.447E+00    0.243E+02
RMM:  21    -0.239417755547E+03   -0.21008E+02   -0.66363E+01 10312   0.485E+00    0.245E+02
RMM:  22    -0.140541912996E+03    0.98876E+02   -0.29651E+01  9232   0.532E+00    0.212E+02
RMM:  23    -0.141715149662E+03   -0.11732E+01   -0.85122E+00 10046   0.242E+00    0.213E+02
RMM:  24    -0.137667285019E+03    0.40479E+01   -0.65979E-01 10468   0.129E+00    0.210E+02
RMM:  25    -0.132517825869E+03    0.51495E+01    0.59950E-01  9721   0.999E-01    0.207E+02
RMM:  26    -0.132920478520E+03   -0.40265E+00    0.60978E-01 10243   0.545E-01    0.207E+02
RMM:  27    -0.139335509446E+03   -0.64150E+01   -0.12185E+00  8878   0.249E+00    0.209E+02
RMM:  28    -0.148884997954E+03   -0.95495E+01   -0.97592E-01  8791   0.185E+00    0.218E+02
RMM:  29    -0.124724195220E+03    0.24161E+02   -0.11488E+00  8421   0.246E+00    0.215E+02
RMM:  30    -0.117694457805E+03    0.70297E+01   -0.42234E-01  9292   0.147E+00    0.211E+02
RMM:  31    -0.946915382002E+02    0.23003E+02   -0.14655E+00  8869   0.236E+00    0.190E+02
RMM:  32    -0.996216573821E+02   -0.49301E+01   -0.21125E-01  8930   0.110E+00    0.193E+02
RMM:  33    -0.110466265459E+03   -0.10845E+02    0.45691E-01  8535   0.112E+00    0.200E+02
RMM:  34    -0.109789289637E+03    0.67698E+00    0.16572E-01  9115   0.817E-01    0.197E+02
RMM:  35    -0.108171520750E+03    0.16178E+01   -0.51745E-01  8681   0.148E+00    0.191E+02
RMM:  36    -0.107045746816E+03    0.11258E+01   -0.56339E-01  8807   0.101E+00    0.186E+02
RMM:  37    -0.108023092241E+03   -0.97735E+00   -0.52644E+00  8756   0.860E-01    0.187E+02
RMM:  38    -0.112310696455E+03   -0.42876E+01   -0.46917E+00  8369   0.131E+00    0.184E+02
RMM:  39    -0.107614752100E+03    0.46959E+01   -0.73532E+00  7952   0.503E+00    0.115E+02
RMM:  40    -0.103353147741E+03    0.42616E+01   -0.10260E+00  7894   0.227E+00    0.124E+02
RMM:  41    -0.869673673864E+02    0.16386E+02   -0.11671E+00  8914   0.162E+00    0.968E+01
RMM:  42    -0.835303825351E+02    0.34370E+01   -0.19955E+00  8327   0.260E+00    0.938E+01
RMM:  43    -0.745276748961E+02    0.90027E+01   -0.22684E+00  7912   0.315E+00    0.974E+01
RMM:  44    -0.643828304519E+02    0.10145E+02   -0.23338E+00  8246   0.295E+00    0.115E+02
RMM:  45    -0.417190452522E+02    0.22664E+02   -0.29222E+00  7883   0.310E+00    0.118E+02
RMM:  46    -0.306183901776E+02    0.11101E+02   -0.90513E+00  8344   0.291E+00    0.110E+02
RMM:  47    -0.214337839755E+02    0.91846E+01   -0.71911E+00  8179   0.469E+00    0.730E+01
RMM:  48    -0.946117459732E+01    0.11973E+02   -0.15087E+01  8057   0.328E+00    0.710E+01
RMM:  49    -0.139958208485E+02   -0.45346E+01   -0.27274E+00  8183   0.208E+00    0.753E+01
RMM:  50    -0.172025567547E+02   -0.32067E+01   -0.68726E-01  8004   0.139E+00    0.726E+01
RMM:  51    -0.173150827549E+02   -0.11253E+00   -0.70211E-02  9678   0.456E-01    0.729E+01
RMM:  52    -0.365269466996E+02   -0.19212E+02   -0.10249E+01  7701   0.505E+00    0.887E+01
RMM:  53    -0.185951020557E+02    0.17932E+02   -0.22028E+00  7544   0.266E+00    0.748E+01
RMM:  54    -0.142449950313E+02    0.43501E+01   -0.11511E+00  8472   0.179E+00    0.801E+01
RMM:  55    -0.122038140688E+02    0.20412E+01   -0.35367E-01  8577   0.119E+00    0.793E+01
RMM:  56    -0.176720981306E+02   -0.54683E+01   -0.63737E-01  7570   0.173E+00    0.819E+01
RMM:  57    -0.364807387300E+02   -0.18809E+02   -0.21609E+01  7595   0.101E+01    0.138E+02
RMM:  58    -0.271376796480E+02    0.93431E+01   -0.26797E+00  8672   0.338E+00    0.131E+02
RMM:  59    -0.432295427076E+02   -0.16092E+02   -0.89933E+00  7682   0.432E+00    0.130E+02
RMM:  60    -0.581785129181E+02   -0.14949E+02   -0.31799E+00  8387   0.315E+00    0.139E+02
RMM:  61    -0.616453221501E+02   -0.34668E+01   -0.59685E-01 10258   0.114E+00    0.141E+02
RMM:  62    -0.286400281890E+02    0.33005E+02   -0.22258E+01  7859   0.699E+00    0.121E+02
RMM:  63    -0.212234047464E+02    0.74166E+01   -0.30910E+00  7968   0.341E+00    0.107E+02
RMM:  64    -0.261145646080E+02   -0.48912E+01   -0.24433E+00  7778   0.330E+00    0.108E+02
RMM:  65    -0.258738996945E+02    0.24066E+00   -0.14515E+00  8062   0.247E+00    0.109E+02
RMM:  66    -0.264264781087E+02   -0.55258E+00   -0.99711E-01  7968   0.218E+00    0.109E+02
RMM:  67    -0.724338042600E+02   -0.46007E+02   -0.55267E+01  7705   0.125E+01    0.123E+02
RMM:  68    -0.938228089120E+02   -0.21389E+02   -0.16444E+01  9062   0.665E+00    0.157E+02
RMM:  69    -0.123274312438E+03   -0.29452E+02   -0.39613E+01 10551   0.720E+00    0.163E+02
RMM:  70    -0.163122203981E+03   -0.39848E+02   -0.53732E+01 12065   0.811E+00    0.160E+02
RMM:  71    -0.174456943776E+03   -0.11335E+02   -0.56068E+01 12318   0.751E+00    0.150E+02
RMM:  72    -0.122597237662E+03    0.51860E+02   -0.35387E+01 10551   0.720E+00    0.118E+02
RMM:  73    -0.970762133512E+02    0.25521E+02   -0.19081E+01 10192   0.536E+00    0.109E+02
RMM:  74    -0.768748708575E+02    0.20201E+02   -0.12817E+01 10125   0.402E+00    0.107E+02
RMM:  75    -0.537255733895E+02    0.23149E+02   -0.83938E+00  9894   0.334E+00    0.103E+02
RMM:  76    -0.409377341781E+02    0.12788E+02   -0.47601E+00  9276   0.254E+00    0.102E+02
RMM:  77    -0.675877218276E+02   -0.26650E+02   -0.52571E+01  8167   0.123E+01    0.162E+02
RMM:  78    -0.430553837420E+01    0.63282E+02   -0.13996E+01  7557   0.795E+00    0.694E+01
RMM:  79     0.210720031704E+00    0.45163E+01   -0.39186E+00  8475   0.373E+00    0.667E+01
RMM:  80    -0.593044448623E+01   -0.61412E+01   -0.41132E+00  7755   0.363E+00    0.658E+01
RMM:  81    -0.860579185955E+01   -0.26753E+01   -0.86979E-01  9008   0.179E+00    0.747E+01
RMM:  82    -0.180843214288E+02   -0.94785E+01   -0.10481E+01  7668   0.668E+00    0.111E+02
RMM:  83    -0.198517231358E+02   -0.17674E+01   -0.19144E+00  9433   0.257E+00    0.125E+02
RMM:  84    -0.179098972919E+02    0.19418E+01   -0.24716E-01  9506   0.843E-01    0.116E+02
RMM:  85    -0.147707033952E+02    0.31392E+01   -0.48023E-01  7651   0.136E+00    0.106E+02
RMM:  86    -0.136172640425E+02    0.11534E+01   -0.19635E-01  7829   0.957E-01    0.102E+02
RMM:  87    -0.493482290545E+01    0.86824E+01   -0.42797E+00  7533   0.445E+00    0.926E+01
RMM:  88    -0.746501926693E+01   -0.25302E+01   -0.34700E+00  7652   0.351E+00    0.713E+01
RMM:  89    -0.684449706750E+01    0.62052E+00   -0.26091E+00  7663   0.349E+00    0.727E+01
RMM:  90    -0.572657287239E+01    0.11179E+01   -0.15102E+00  8050   0.252E+00    0.727E+01
RMM:  91    -0.725035018057E+01   -0.15238E+01   -0.33176E-01  9273   0.108E+00    0.702E+01
RMM:  92    -0.269778723022E+02   -0.19728E+02   -0.75691E+00  7872   0.548E+00    0.821E+01
RMM:  93    -0.172264460608E+02    0.97514E+01   -0.17140E+00  8757   0.236E+00    0.765E+01
RMM:  94    -0.331980043791E+02   -0.15972E+02   -0.30465E+00  8314   0.295E+00    0.826E+01
RMM:  95    -0.330703910021E+02    0.12761E+00   -0.10285E+00  9099   0.143E+00    0.832E+01
RMM:  96    -0.324620643470E+02    0.60833E+00   -0.64223E-01  9909   0.763E-01    0.838E+01
RMM:  97    -0.163537548441E+02    0.16108E+02   -0.22359E+01  7831   0.927E+00    0.108E+02
RMM:  98    -0.186520339518E+02   -0.22983E+01   -0.81888E+00  7791   0.630E+00    0.107E+02
RMM:  99    -0.416915427484E+02   -0.23040E+02   -0.10304E+01  7549   0.655E+00    0.769E+01
RMM: 100    -0.619926608427E+02   -0.20301E+02   -0.40648E+00  8055   0.385E+00    0.750E+01
RMM: 101    -0.687589698029E+02   -0.67663E+01   -0.69852E-01  8711   0.157E+00    0.763E+01
RMM: 102    -0.324677388523E+02    0.36291E+02   -0.99453E+00  7503   0.654E+00    0.588E+01
RMM: 103    -0.611096784706E+02   -0.28642E+02   -0.58347E+00  7812   0.513E+00    0.674E+01
RMM: 104    -0.582430232267E+02    0.28667E+01   -0.78385E+00  8399   0.484E+00    0.760E+01
RMM: 105    -0.602347934364E+02   -0.19918E+01   -0.14648E+00  9334   0.196E+00    0.795E+01
RMM: 106    -0.562961439824E+02    0.39386E+01   -0.81074E-01  8009   0.175E+00    0.733E+01
RMM: 107    -0.240225996266E+02    0.32274E+02   -0.52943E+00  7986   0.439E+00    0.651E+01
RMM: 108    -0.221001571802E+02    0.19224E+01   -0.32102E+00  7692   0.381E+00    0.655E+01
RMM: 109     0.113867968736E+00    0.22214E+02   -0.18527E+01  7636   0.608E+00    0.604E+01
RMM: 110    -0.481480144447E+01   -0.49287E+01   -0.60229E+00  7659   0.452E+00    0.621E+01
RMM: 111    -0.945508836704E+01   -0.46403E+01   -0.21986E+00  8241   0.261E+00    0.591E+01
RMM: 112    -0.290881413608E+02   -0.19633E+02   -0.65308E+00  7951   0.440E+00    0.646E+01
RMM: 113    -0.391966438540E+02   -0.10109E+02   -0.55573E+00  7589   0.402E+00    0.512E+01
RMM: 114    -0.653812958111E+02   -0.26185E+02   -0.83004E+00  8523   0.425E+00    0.538E+01
RMM: 115    -0.858985618742E+02   -0.20517E+02   -0.62035E+00  9813   0.361E+00    0.618E+01
RMM: 116    -0.101227345742E+03   -0.15329E+02   -0.46861E+00 11725   0.258E+00    0.553E+01
RMM: 117    -0.172138161319E+03   -0.70911E+02   -0.34073E+01 12436   0.690E+00    0.825E+01
RMM: 118    -0.182528791942E+03   -0.10391E+02    0.14214E+01 12545   0.622E+00    0.794E+01
RMM: 119    -0.182229877587E+03    0.29891E+00    0.57809E+00 13137   0.434E+00    0.800E+01
RMM: 120    -0.182605202431E+03   -0.37532E+00   -0.48497E-01 12965   0.358E+00    0.823E+01
RMM: 121    -0.187513570300E+03   -0.49084E+01    0.46991E+00 12877   0.385E+00    0.835E+01
RMM: 122    -0.200331834048E+03   -0.12818E+02    0.93974E+00 12719   0.530E+00    0.874E+01
RMM: 123    -0.199194521265E+03    0.11373E+01    0.13676E+01 12970   0.557E+00    0.768E+01
RMM: 124    -0.207411014265E+03   -0.82165E+01    0.36467E+01 13011   0.772E+00    0.772E+01
RMM: 125    -0.175710054595E+03    0.31701E+02    0.14009E+00 12782   0.786E+00    0.687E+01
RMM: 126    -0.160379155086E+03    0.15331E+02    0.43135E+01 13077   0.711E+00    0.684E+01
RMM: 127    -0.138599499845E+03    0.21780E+02    0.44227E+01 12780   0.701E+00    0.675E+01
RMM: 128    -0.132702215098E+03    0.58973E+01    0.81644E+01 13005   0.723E+00    0.667E+01
RMM: 129    -0.127985106863E+03    0.47171E+01    0.56171E+01 13183   0.596E+00    0.664E+01
RMM: 130    -0.123009024053E+03    0.49761E+01    0.11420E+02 13456   0.823E+00    0.656E+01
RMM: 131    -0.118329063570E+03    0.46800E+01    0.92565E+01 13223   0.794E+00    0.647E+01
RMM: 132    -0.559072912811E+02    0.62422E+02   -0.67410E+01 10767   0.967E+00    0.593E+01
RMM: 133    -0.520528062749E+02    0.38545E+01   -0.35314E+00 11422   0.475E+00    0.605E+01
RMM: 134    -0.467910569482E+02    0.52617E+01   -0.53362E+00 11076   0.291E+00    0.586E+01
RMM: 135    -0.331003526614E+02    0.13691E+02   -0.81391E+00  9801   0.339E+00    0.526E+01
RMM: 136    -0.351577892841E+02   -0.20574E+01   -0.25307E+01 10218   0.468E+00    0.537E+01
RMM: 137    -0.269860696026E+03   -0.23470E+03   -0.62738E+02 12588   0.346E+01    0.811E+01
RMM: 138    -0.269860919489E+03   -0.22346E-03   -0.38918E+02 12553   0.190E+01    0.779E+01
RMM: 139    -0.301785147869E+03   -0.31924E+02   -0.18132E+02 12654   0.161E+01    0.755E+01
RMM: 140    -0.333891752170E+03   -0.32107E+02   -0.10045E+02 12624   0.124E+01    0.780E+01
RMM: 141    -0.348596562254E+03   -0.14705E+02   -0.53642E+01 12730   0.112E+01    0.776E+01
RMM: 142    -0.306078741928E+03    0.42518E+02   -0.50569E+01 12610   0.948E+00    0.785E+01
RMM: 143    -0.305557250995E+03    0.52149E+00   -0.11256E+01 12598   0.100E+01    0.792E+01
RMM: 144    -0.304947481382E+03    0.60977E+00   -0.11878E+01 12676   0.901E+00    0.793E+01
RMM: 145    -0.334463688818E+03   -0.29516E+02   -0.10669E+01 12598   0.123E+01    0.794E+01
RMM: 146    -0.346134937038E+03   -0.11671E+02   -0.28472E+01 12584   0.128E+01    0.807E+01
RMM: 147    -0.392973513760E+03   -0.46839E+02   -0.14959E+02 12719   0.190E+01    0.835E+01
RMM: 148    -0.377278655078E+03    0.15695E+02   -0.94304E+01 12691   0.150E+01    0.826E+01
RMM: 149    -0.429002123866E+03   -0.51723E+02   -0.88242E+01 12726   0.161E+01    0.875E+01
RMM: 150    -0.456001867880E+03   -0.27000E+02   -0.11885E+02 12752   0.153E+01
   2 F= -.45600187E+03 E0= -.45598986E+03  d E =-.122181E+03
 trial-energy change: -122.181389  1 .order 1834.924302 -294.910232 3964.758836
 step:   0.0692(harm=  0.0692)  dis= 0.23687  next Energy=  -344.029258 (dE=-0.102E+02)
 bond charge predicted
       N       E                     dE             d eps       ncg     rms          rms(c)
DAV:   1    -0.102275623100E+04   -0.59375E+03   -0.77028E+03  9320   0.160E+02    0.311E+02
RMM:   2    -0.133609661127E+03    0.88915E+03   -0.33521E+04 12652   0.716E+02    0.107E+03
RMM:   3    -0.354645865260E+04   -0.34128E+04   -0.29297E+04 13075   0.628E+02    0.190E+03
RMM:   4    -0.770400663413E+04   -0.41575E+04   -0.41583E+04 13572   0.607E+02    0.300E+03
RMM:   5    -0.113242861666E+05   -0.36203E+04   -0.42730E+04 13519   0.558E+02    0.361E+03
RMM:   6    -0.131055749760E+05   -0.17813E+04   -0.30235E+04 13669   0.453E+02    0.378E+03
RMM:   7    -0.135211083636E+05   -0.41553E+03   -0.15697E+04 13578   0.326E+02    0.349E+03
RMM:   8    -0.137206956372E+05   -0.19959E+03   -0.88557E+03 13460   0.241E+02    0.304E+03
RMM:   9    -0.106811098403E+05    0.30396E+04   -0.44636E+03 13172   0.157E+02    0.211E+03
RMM:  10    -0.706889405088E+03    0.99742E+04   -0.19015E+04 13183   0.308E+02    0.119E+03
RMM:  11    -0.950249348645E+02    0.61186E+03   -0.69375E+03 13281   0.242E+02    0.109E+03
RMM:  12     0.320708110669E+03    0.41573E+03   -0.58921E+03 13668   0.182E+02    0.748E+02
RMM:  13     0.231006855441E+04    0.19894E+04   -0.17648E+04 13727   0.355E+02    0.904E+02
RMM:  14     0.422709367309E+03   -0.18874E+04   -0.17130E+04 13239   0.339E+02    0.111E+03
RMM:  15    -0.141724450894E+03   -0.56443E+03   -0.96168E+03 12603   0.352E+02    0.120E+03
RMM:  16    -0.170525924636E+04   -0.15635E+04   -0.12415E+04 13277   0.335E+02    0.153E+03
RMM:  17    -0.431743175845E+04   -0.26122E+04   -0.21496E+04 13494   0.392E+02    0.202E+03
RMM:  18    -0.598666121921E+04   -0.16692E+04   -0.15215E+04 13296   0.409E+02    0.218E+03
RMM:  19    -0.717491612953E+04   -0.11883E+04   -0.12459E+04 13413   0.295E+02    0.225E+03
RMM:  20    -0.653461996086E+04    0.64030E+03   -0.46974E+03 12852   0.244E+02    0.198E+03
RMM:  21    -0.841855091576E+03    0.56928E+04   -0.93892E+03 12652   0.230E+02    0.577E+02
RMM:  22    -0.105063075867E+04   -0.20878E+03   -0.27863E+03  8870   0.145E+02    0.418E+02
RMM:  23    -0.612007644653E+04   -0.50694E+04   -0.88243E+03 12842   0.201E+02    0.110E+03
RMM:  24    -0.842931150410E+04   -0.23092E+04   -0.56419E+03 12240   0.161E+02    0.122E+03
RMM:  25    -0.890590209888E+04   -0.47659E+03   -0.38596E+03 12430   0.107E+02    0.128E+03
RMM:  26    -0.913829363767E+04   -0.23239E+03   -0.28859E+03 12505   0.766E+01    0.135E+03
RMM:  27    -0.865524314908E+04    0.48305E+03   -0.16067E+03 12097   0.595E+01    0.140E+03
RMM:  28    -0.876552662424E+04   -0.11028E+03   -0.18562E+03 12251   0.441E+01    0.155E+03
RMM:  29    -0.894855548672E+04   -0.18303E+03   -0.13098E+03 12585   0.470E+01    0.169E+03
RMM:  30    -0.916124881561E+04   -0.21269E+03   -0.16775E+03 12451   0.383E+01    0.185E+03
RMM:  31    -0.923522713776E+04   -0.73978E+02   -0.93666E+02 11852   0.404E+01    0.193E+03
RMM:  32    -0.936854954430E+04   -0.13332E+03   -0.12085E+03 12408   0.289E+01    0.201E+03
RMM:  33    -0.951713167779E+04   -0.14858E+03   -0.60217E+02 11772   0.322E+01    0.211E+03
RMM:  34    -0.933987311875E+04    0.17726E+03   -0.74388E+02 11844   0.209E+01    0.216E+03
RMM:  35    -0.819882840808E+04    0.11410E+04   -0.17781E+02 10904   0.230E+01    0.211E+03
RMM:  36    -0.763978032441E+04    0.55905E+03   -0.28241E+02 11884   0.161E+01    0.206E+03
RMM:  37    -0.693223809412E+04    0.70754E+03   -0.10431E+02 11440   0.157E+01    0.192E+03
RMM:  38    -0.635418930778E+04    0.57805E+03   -0.12704E+02 11918   0.986E+00    0.177E+03
RMM:  39    -0.629072102723E+04    0.63468E+02   -0.76870E+01 11841   0.951E+00    0.176E+03
RMM:  40    -0.620048608501E+04    0.90235E+02   -0.85951E+01 11684   0.688E+00    0.172E+03
RMM:  41    -0.650496419483E+04   -0.30448E+03   -0.83868E+01 10889   0.891E+00    0.178E+03
RMM:  42    -0.657068230208E+04   -0.65718E+02   -0.92465E+01 10121   0.781E+00    0.177E+03
RMM:  43    -0.677528897877E+04   -0.20461E+03   -0.77077E+01  9907   0.916E+00    0.170E+03
RMM:  44    -0.676194425464E+04    0.13345E+02   -0.67023E+01 10620   0.826E+00    0.162E+03
RMM:  45    -0.660045771654E+04    0.16149E+03   -0.10606E+02 10851   0.115E+01    0.141E+03
RMM:  46    -0.650882676582E+04    0.91631E+02   -0.36949E+01  9528   0.888E+00    0.142E+03
RMM:  47     0.269680580282E+04    0.92056E+04   -0.39010E+03 12160   0.122E+02    0.116E+03
RMM:  48     0.457847938378E+04    0.18817E+04   -0.16445E+03 12080   0.123E+02    0.109E+03
RMM:  49     0.576115281065E+04    0.11827E+04   -0.26423E+03 13726   0.982E+01    0.881E+02
RMM:  50     0.692390724104E+04    0.11628E+04   -0.31486E+03 13025   0.161E+02    0.734E+02
RMM:  51     0.604963840540E+04   -0.87427E+03   -0.83079E+03 13066   0.214E+02    0.119E+03
RMM:  52     0.615961637139E+04    0.10998E+03   -0.35583E+04 12736   0.567E+02    0.231E+03
RMM:  53     0.326126813516E+04   -0.28983E+04   -0.38520E+04 12926   0.621E+02    0.285E+03
RMM:  54    -0.444445041501E+03   -0.37057E+04   -0.37184E+04 13120   0.641E+02    0.350E+03
RMM:  55    -0.302119910625E+04   -0.25768E+04   -0.26922E+04 13323   0.539E+02    0.345E+03
RMM:  56    -0.473938907235E+04   -0.17182E+04   -0.18420E+04 13645   0.377E+02    0.281E+03
RMM:  57    -0.704258547211E+04   -0.23032E+04   -0.26149E+04 13571   0.398E+02    0.282E+03
RMM:  58    -0.856291374674E+04   -0.15203E+04   -0.15145E+04 13433   0.411E+02    0.306E+03
RMM:  59    -0.105700887656E+05   -0.20072E+04   -0.20373E+04 13745   0.300E+02    0.319E+03
RMM:  60    -0.113494523589E+05   -0.77936E+03   -0.87712E+03 11388   0.328E+02    0.309E+03
RMM:  61    -0.110892074003E+05    0.26024E+03   -0.67742E+03 12278   0.186E+02    0.236E+03
RMM:  62    -0.702559488885E+04    0.40636E+04   -0.65801E+03 11620   0.154E+02    0.863E+02
RMM:  63    -0.560572730912E+04    0.14199E+04   -0.21508E+03 11398   0.650E+01    0.584E+02
RMM:  64    -0.493408372694E+04    0.67164E+03   -0.51530E+02 11263   0.366E+01    0.475E+02
RMM:  65    -0.420369670971E+04    0.73039E+03   -0.28852E+02 11143   0.196E+01    0.447E+02
RMM:  66    -0.347502963264E+04    0.72867E+03   -0.30196E+02 10526   0.309E+01    0.517E+02
RMM:  67    -0.271140305029E+04    0.76363E+03   -0.40827E+02 11358   0.200E+01    0.440E+02
RMM:  68    -0.257150398791E+04    0.13990E+03   -0.23644E+02 11073   0.186E+01    0.516E+02
RMM:  69    -0.262732426226E+04   -0.55820E+02   -0.10305E+02 10950   0.105E+01    0.550E+02
RMM:  70    -0.238776188530E+04    0.23956E+03   -0.10492E+02 11147   0.973E+00    0.547E+02
RMM:  71    -0.216742101547E+04    0.22034E+03   -0.20573E+02 11467   0.127E+01    0.543E+02
RMM:  72    -0.654966344706E+03    0.15125E+04   -0.31346E+02 11117   0.246E+01    0.366E+02
RMM:  73    -0.631778873387E+00    0.65433E+03   -0.17281E+02 11810   0.341E+01    0.394E+02
RMM:  74     0.474793428375E+03    0.47543E+03   -0.17909E+02 12679   0.302E+01    0.396E+02
RMM:  75     0.819390179102E+03    0.34460E+03   -0.30405E+02 13070   0.394E+01    0.385E+02
RMM:  76     0.871946503704E+03    0.52556E+02   -0.71765E+02 13063   0.507E+01    0.338E+02
RMM:  77     0.464403546685E+03   -0.40754E+03   -0.66107E+02 12740   0.595E+01    0.309E+02
RMM:  78     0.667817898579E+02   -0.39762E+03   -0.55221E+02 13202   0.520E+01    0.307E+02
RMM:  79    -0.537693799715E+03   -0.60448E+03   -0.24567E+02 11770   0.415E+01    0.324E+02
RMM:  80    -0.934534289117E+03   -0.39684E+03   -0.30635E+02 12262   0.274E+01    0.331E+02
RMM:  81    -0.696147894544E+03    0.23839E+03   -0.71363E+02 13230   0.476E+01    0.329E+02
RMM:  82    -0.125199211464E+04   -0.55584E+03   -0.54650E+02 10895   0.416E+01    0.274E+02
RMM:  83    -0.111756439137E+04    0.13443E+03   -0.34921E+02 12121   0.258E+01    0.250E+02
RMM:  84    -0.992796393505E+03    0.12477E+03   -0.41461E+02 12027   0.306E+01    0.231E+02
RMM:  85    -0.107340154425E+04   -0.80605E+02   -0.37931E+02 12076   0.194E+01    0.233E+02
RMM:  86    -0.112807844190E+04   -0.54677E+02   -0.22710E+02 11091   0.174E+01    0.243E+02
RMM:  87    -0.738961957666E+03    0.38912E+03   -0.15518E+03 11346   0.568E+01    0.227E+02
RMM:  88    -0.614730252001E+03    0.12423E+03   -0.11268E+03 12036   0.545E+01    0.165E+02
RMM:  89    -0.437707630865E+03    0.17702E+03   -0.10116E+03 12333   0.462E+01    0.143E+02
RMM:  90    -0.485812175376E+03   -0.48105E+02   -0.59013E+02 11533   0.417E+01    0.146E+02
RMM:  91    -0.507249801357E+03   -0.21438E+02   -0.55542E+02 12662   0.376E+01    0.140E+02
RMM:  92    -0.674661199235E+03   -0.16741E+03   -0.15695E+03 12374   0.681E+01    0.158E+02
RMM:  93    -0.786292119521E+03   -0.11163E+03   -0.10592E+03 12652   0.555E+01    0.215E+02
RMM:  94    -0.971282575126E+03   -0.18499E+03   -0.12985E+03 12669   0.600E+01    0.241E+02
RMM:  95    -0.114081260926E+04   -0.16953E+03   -0.15076E+03 13133   0.602E+01    0.301E+02
RMM:  96    -0.127492481956E+04   -0.13411E+03   -0.12837E+03 12798   0.553E+01    0.332E+02
RMM:  97    -0.178006990395E+04   -0.50515E+03   -0.36605E+03 13048   0.100E+02    0.566E+02
RMM:  98    -0.170012627443E+04    0.79944E+02   -0.16399E+03 12668   0.718E+01    0.440E+02
RMM:  99    -0.143891557828E+04    0.26121E+03   -0.75235E+02 12000   0.403E+01    0.348E+02
RMM: 100    -0.104496780277E+04    0.39395E+03   -0.44697E+02 10455   0.354E+01    0.221E+02
RMM: 101    -0.872923378316E+03    0.17204E+03   -0.34010E+02 10772   0.259E+01    0.152E+02
RMM: 102    -0.577192667894E+03    0.29573E+03   -0.50734E+02 10445   0.306E+01    0.106E+02
RMM: 103    -0.506917365962E+03    0.70275E+02   -0.20113E+02 10185   0.201E+01    0.105E+02
RMM: 104    -0.480111694837E+03    0.26806E+02   -0.12702E+02 11078   0.131E+01    0.102E+02
RMM: 105    -0.447954125962E+03    0.32158E+02   -0.39170E+01  9499   0.883E+00    0.103E+02
RMM: 106    -0.439889253912E+03    0.80649E+01   -0.17594E+01  9495   0.693E+00    0.109E+02
RMM: 107    -0.507636284057E+03   -0.67747E+02   -0.13055E+02  9604   0.202E+01    0.127E+02
RMM: 108    -0.472794560173E+03    0.34842E+02   -0.47839E+01 10069   0.117E+01    0.117E+02
RMM: 109    -0.459358864285E+03    0.13436E+02   -0.16205E+01  9869   0.666E+00    0.109E+02
RMM: 110    -0.461139616769E+03   -0.17808E+01   -0.79803E+00  9842   0.536E+00    0.112E+02
RMM: 111    -0.445710241988E+03    0.15429E+02   -0.75608E+00  9699   0.517E+00    0.110E+02
RMM: 112    -0.478381868794E+03   -0.32672E+02   -0.10738E+02  8937   0.200E+01    0.950E+01
RMM: 113    -0.459925797502E+03    0.18456E+02   -0.26804E+01  9565   0.115E+01    0.989E+01
RMM: 114    -0.419382411062E+03    0.40543E+02   -0.26638E+01  9546   0.853E+00    0.100E+02
RMM: 115    -0.408256115417E+03    0.11126E+02   -0.23898E+01 10365   0.790E+00    0.124E+02
RMM: 116    -0.410275508289E+03   -0.20194E+01   -0.52112E+00 10770   0.274E+00    0.125E+02
RMM: 117    -0.462251710000E+03   -0.51976E+02   -0.14876E+02  8911   0.175E+01    0.155E+02
RMM: 118    -0.463085831452E+03   -0.83412E+00   -0.46480E+01  9475   0.976E+00    0.166E+02
RMM: 119    -0.462765826991E+03    0.32000E+00   -0.27115E+01 11282   0.468E+00    0.171E+02
RMM: 120    -0.465165872128E+03   -0.24000E+01   -0.17086E+01 10397   0.287E+00    0.177E+02
RMM: 121    -0.457961027940E+03    0.72048E+01   -0.12433E+01 10098   0.257E+00    0.181E+02
RMM: 122    -0.420605511183E+03    0.37356E+02   -0.22430E+01  8623   0.826E+00    0.139E+02
RMM: 123    -0.407706022700E+03    0.12899E+02   -0.80453E+00  9030   0.576E+00    0.145E+02
RMM: 124    -0.405328055303E+03    0.23780E+01   -0.87863E+00  9086   0.505E+00    0.152E+02
RMM: 125    -0.392262351018E+03    0.13066E+02   -0.11100E+01  9061   0.639E+00    0.144E+02
RMM: 126    -0.395517127152E+03   -0.32548E+01   -0.88637E+00  9851   0.497E+00    0.149E+02
RMM: 127    -0.412915353080E+03   -0.17398E+02   -0.22604E+01  9128   0.813E+00    0.154E+02
RMM: 128    -0.407322554499E+03    0.55928E+01   -0.38167E+00  9494   0.257E+00    0.152E+02
RMM: 129    -0.402628143172E+03    0.46944E+01   -0.25637E+00  8266   0.291E+00    0.142E+02
RMM: 130    -0.396127817309E+03    0.65003E+01   -0.18737E+00  9094   0.251E+00    0.141E+02
RMM: 131    -0.390162246532E+03    0.59656E+01   -0.23960E+00  8902   0.279E+00    0.134E+02
RMM: 132    -0.386564549879E+03    0.35977E+01   -0.94857E+00  8572   0.564E+00    0.119E+02
RMM: 133    -0.384195254590E+03    0.23693E+01   -0.22836E+00  9538   0.281E+00    0.120E+02
RMM: 134    -0.384057913327E+03    0.13734E+00   -0.94737E-01  9974   0.161E+00    0.119E+02
RMM: 135    -0.384095559016E+03   -0.37646E-01   -0.13616E-01  9493   0.511E-01    0.118E+02
RMM: 136    -0.384480216782E+03   -0.38466E+00   -0.35852E-02 10054   0.262E-01    0.118E+02
RMM: 137    -0.412540689603E+03   -0.28060E+02   -0.30795E+01  7937   0.103E+01    0.116E+02
RMM: 138    -0.398767793409E+03    0.13773E+02   -0.87917E+00  7816   0.663E+00    0.112E+02
RMM: 139    -0.400170370598E+03   -0.14026E+01   -0.48172E+00  8980   0.393E+00    0.110E+02
RMM: 140    -0.405472692068E+03   -0.53023E+01   -0.72346E+00  8577   0.457E+00    0.123E+02
RMM: 141    -0.398904738836E+03    0.65680E+01   -0.16480E+00  8909   0.260E+00    0.122E+02
RMM: 142    -0.394716932770E+03    0.41878E+01   -0.33129E+01  7923   0.115E+01    0.112E+02
RMM: 143    -0.388679400217E+03    0.60375E+01   -0.96683E+00  8929   0.563E+00    0.118E+02
RMM: 144    -0.387996248839E+03    0.68315E+00   -0.15305E+00  9926   0.175E+00    0.117E+02
RMM: 145    -0.387954413774E+03    0.41835E-01   -0.57231E-01 10802   0.672E-01    0.118E+02
RMM: 146    -0.390655750432E+03   -0.27013E+01   -0.98293E-01  7807   0.209E+00    0.111E+02
RMM: 147    -0.390382234810E+03    0.27352E+00   -0.14671E+01  8103   0.731E+00    0.130E+02
RMM: 148    -0.394061287101E+03   -0.36791E+01   -0.44630E+00  7761   0.450E+00    0.113E+02
RMM: 149    -0.384648055422E+03    0.94132E+01   -0.36569E+00  7622   0.422E+00    0.115E+02
RMM: 150    -0.382501439508E+03    0.21466E+01   -0.19943E+00  8223   0.296E+00
   3 F= -.38250144E+03 E0= -.38248755E+03  d E =-.486810E+02
 curvature:  -0.03 expect dE=-0.977E+00 dE for cont linesearch -0.135E+00
 ZBRENT: interpolating
 opt :   0.0621  next Energy=  -382.622890 (dE=-0.488E+02)
 bond charge predicted
       N       E                     dE             d eps       ncg     rms          rms(c)
DAV:   1    -0.382197908679E+03    0.24501E+01   -0.10976E+01  8512   0.897E+00    0.117E+02
RMM:   2    -0.481935520296E+03   -0.99738E+02   -0.39216E+02 10336   0.344E+01    0.138E+02
RMM:   3    -0.794320709440E+03   -0.31239E+03   -0.39652E+02 11017   0.365E+01    0.207E+02
RMM:   4    -0.396180644562E+03    0.39814E+03   -0.16696E+02  9102   0.212E+01    0.773E+01
RMM:   5    -0.411728685854E+03   -0.15548E+02   -0.14092E+02  8254   0.234E+01    0.119E+02
RMM:   6    -0.411787686534E+03   -0.59001E-01   -0.80297E+01  9573   0.145E+01    0.773E+01
RMM:   7    -0.474245956019E+03   -0.62458E+02   -0.89944E+01  7962   0.196E+01    0.115E+02
RMM:   8    -0.378118158926E+03    0.96128E+02   -0.24012E+01  9000   0.788E+00    0.715E+01
RMM:   9    -0.358568495480E+03    0.19550E+02   -0.53396E+00  8261   0.438E+00    0.613E+01
RMM:  10    -0.352666862523E+03    0.59016E+01   -0.44473E+00  8353   0.387E+00    0.573E+01
RMM:  11    -0.350402082073E+03    0.22648E+01   -0.22579E+00  8522   0.254E+00    0.543E+01
RMM:  12    -0.350640076653E+03   -0.23799E+00   -0.11998E+00  9132   0.164E+00    0.527E+01
RMM:  13    -0.349343282681E+03    0.12968E+01   -0.65035E-01  8246   0.159E+00    0.518E+01
RMM:  14    -0.347161422022E+03    0.21819E+01   -0.65190E-01  7832   0.167E+00    0.464E+01
RMM:  15    -0.347801344951E+03   -0.63992E+00   -0.82656E-01  7663   0.210E+00    0.444E+01
RMM:  16    -0.345909385087E+03    0.18920E+01   -0.75259E-01  8093   0.169E+00    0.408E+01
RMM:  17    -0.345936330106E+03   -0.26945E-01   -0.13188E-01  9587   0.593E-01    0.410E+01
RMM:  18    -0.345890155428E+03    0.46175E-01   -0.46245E-02  9688   0.327E-01    0.413E+01
RMM:  19    -0.345575519111E+03    0.31464E+00   -0.17021E-02  8123   0.269E-01    0.406E+01
RMM:  20    -0.344091864295E+03    0.14837E+01   -0.22997E-01  7765   0.976E-01    0.372E+01
RMM:  21    -0.344082204368E+03    0.96599E-02   -0.44799E-02  9289   0.385E-01    0.373E+01
RMM:  22    -0.343444115453E+03    0.63809E+00   -0.11137E-01  8430   0.639E-01    0.354E+01
RMM:  23    -0.343502429006E+03   -0.58314E-01   -0.23419E-02  8847   0.307E-01    0.354E+01
RMM:  24    -0.343508313690E+03   -0.58847E-02   -0.32829E-03  8872   0.922E-02    0.355E+01
RMM:  25    -0.343493361753E+03    0.14952E-01   -0.26899E-02  7694   0.358E-01    0.354E+01
RMM:  26    -0.343701291631E+03   -0.20793E+00   -0.13860E-01  7602   0.811E-01    0.358E+01
RMM:  27    -0.343665894015E+03    0.35398E-01   -0.10302E-01  7542   0.699E-01    0.363E+01
RMM:  28    -0.342353218332E+03    0.13127E+01   -0.24361E-01  8049   0.900E-01    0.322E+01
RMM:  29    -0.341813649236E+03    0.53957E+00   -0.12476E-01  8518   0.731E-01    0.299E+01
RMM:  30    -0.341523536913E+03    0.29011E+00   -0.41937E-02  8926   0.400E-01    0.283E+01
RMM:  31    -0.341360479125E+03    0.16306E+00   -0.22481E-02  8614   0.301E-01    0.276E+01
RMM:  32    -0.341018501391E+03    0.34198E+00   -0.27820E-02  8063   0.336E-01    0.258E+01
RMM:  33    -0.340619237184E+03    0.39926E+00   -0.10345E-01  7598   0.749E-01    0.236E+01
RMM:  34    -0.339768266643E+03    0.85097E+00   -0.31498E-01  7949   0.116E+00    0.178E+01
RMM:  35    -0.339207182915E+03    0.56108E+00   -0.44265E-01  8330   0.129E+00    0.113E+01
RMM:  36    -0.339122904861E+03    0.84278E-01   -0.91704E-02  9313   0.571E-01    0.982E+00
RMM:  37    -0.339125685217E+03   -0.27804E-02   -0.10395E-02  9601   0.138E-01    0.985E+00
RMM:  38    -0.339135535099E+03   -0.98499E-02   -0.73150E-02  8461   0.485E-01    0.967E+00
RMM:  39    -0.339232734161E+03   -0.97199E-01   -0.21480E-02  8535   0.281E-01    0.104E+01
RMM:  40    -0.339215759308E+03    0.16975E-01   -0.22948E-03  8084   0.111E-01    0.102E+01
RMM:  41    -0.339111534029E+03    0.10423E+00   -0.22731E-02  8045   0.275E-01    0.894E+00
RMM:  42    -0.338946405428E+03    0.16513E+00   -0.14506E-01  7877   0.807E-01    0.509E+00
RMM:  43    -0.338931224893E+03    0.15181E-01   -0.72541E-02  9539   0.495E-01    0.449E+00
RMM:  44    -0.338930464234E+03    0.76066E-03   -0.61675E-03  9623   0.141E-01    0.442E+00
RMM:  45    -0.338906043452E+03    0.24421E-01   -0.42520E-03  7931   0.129E-01    0.399E+00
RMM:  46    -0.338876058320E+03    0.29985E-01   -0.12587E-02  8287   0.227E-01    0.329E+00
RMM:  47    -0.338892579638E+03   -0.16521E-01   -0.99604E-02  8403   0.591E-01    0.411E+00
RMM:  48    -0.338889209173E+03    0.33705E-02   -0.10318E-02  9203   0.207E-01    0.403E+00
RMM:  49    -0.338893736490E+03   -0.45273E-02   -0.39398E-03  8475   0.121E-01    0.418E+00
RMM:  50    -0.338854686404E+03    0.39050E-01   -0.29612E-02  7867   0.351E-01    0.271E+00
RMM:  51    -0.338873370058E+03   -0.18684E-01   -0.34110E-02  8661   0.351E-01    0.320E+00
RMM:  52    -0.338858348858E+03    0.15021E-01   -0.21522E-02  7794   0.342E-01    0.304E+00
RMM:  53    -0.338846632442E+03    0.11716E-01   -0.37992E-03  9146   0.116E-01    0.252E+00
RMM:  54    -0.338843113933E+03    0.35185E-02   -0.10459E-03  7114   0.713E-02    0.229E+00
RMM:  55    -0.338840243560E+03    0.28704E-02   -0.11059E-03  7115   0.780E-02    0.199E+00
RMM:  56    -0.338837678455E+03    0.25651E-02   -0.19349E-03  7849   0.957E-02    0.159E+00
RMM:  57    -0.338835992757E+03    0.16857E-02   -0.21534E-03  8081   0.960E-02    0.123E+00
RMM:  58    -0.338835895135E+03    0.97622E-04   -0.40145E-04  5144   0.429E-02
   4 F= -.33883590E+03 E0= -.33883020E+03  d E =-.501542E+01
 curvature:  -0.03 expect dE=-0.235E+00 dE for cont linesearch -0.180E-01
 ZBRENT: interpolating
 opt :   0.0578  next Energy=  -338.865191 (dE=-0.504E+01)
 bond charge predicted
       N       E                     dE             d eps       ncg     rms          rms(c)
DAV:   1    -0.338870222150E+03   -0.34229E-01   -0.25625E+00  7800   0.328E+00    0.110E+00
RMM:   2    -0.339115821534E+03   -0.24560E+00   -0.10688E-01  7711   0.739E-01    0.684E+00
RMM:   3    -0.338882237913E+03    0.23358E+00   -0.17631E-02  8044   0.302E-01    0.120E+00
RMM:   4    -0.338883416974E+03   -0.11791E-02   -0.12584E-02  7750   0.247E-01    0.176E+00
RMM:   5    -0.338922524709E+03   -0.39108E-01   -0.15100E-02  8019   0.214E-01    0.273E+00
RMM:   6    -0.338876932369E+03    0.45592E-01   -0.72443E-03  7614   0.180E-01    0.686E-01
RMM:   7    -0.338875220201E+03    0.17122E-02   -0.55872E-03  7998   0.140E-01    0.421E-01
RMM:   8    -0.338875100906E+03    0.11929E-03   -0.14698E-03  7175   0.786E-02    0.424E-01
RMM:   9    -0.338874768462E+03    0.33244E-03   -0.44875E-04  5415   0.472E-02    0.375E-01
RMM:  10    -0.338874610547E+03    0.15792E-03   -0.13390E-04  4200   0.327E-02    0.311E-01
RMM:  11    -0.338874512025E+03    0.98521E-04   -0.49488E-05  4058   0.227E-02
   5 F= -.33887451E+03 E0= -.33886918E+03  d E =-.505403E+01
 curvature:  -0.05 expect dE=-0.334E+00 dE for cont linesearch -0.565E-02
 ZBRENT: interpolating
 opt :   0.0545  next Energy=  -338.884164 (dE=-0.506E+01)
 bond charge predicted
       N       E                     dE             d eps       ncg     rms          rms(c)
DAV:   1    -0.338879874452E+03   -0.52639E-02   -0.14885E+00  7656   0.251E+00    0.585E-01
RMM:   2    -0.338952428645E+03   -0.72554E-01   -0.49946E-02  7560   0.498E-01    0.384E+00
RMM:   3    -0.338900701723E+03    0.51727E-01   -0.10316E-02  7711   0.216E-01    0.206E+00
RMM:   4    -0.338889600538E+03    0.11101E-01   -0.14627E-03  6731   0.128E-01    0.130E+00
RMM:   5    -0.338892289266E+03   -0.26887E-02   -0.28562E-03  7513   0.992E-02    0.140E+00
RMM:   6    -0.338886358116E+03    0.59312E-02   -0.29052E-03  7323   0.102E-01    0.825E-01
RMM:   7    -0.338884637641E+03    0.17205E-02   -0.17359E-03  7030   0.929E-02    0.621E-01
RMM:   8    -0.338883820129E+03    0.81751E-03   -0.11984E-03  6887   0.694E-02    0.455E-01
RMM:   9    -0.338883527735E+03    0.29239E-03   -0.45141E-04  5413   0.488E-02    0.403E-01
RMM:  10    -0.338883482789E+03    0.44946E-04   -0.67597E-05  4089   0.284E-02
   6 F= -.33888348E+03 E0= -.33887813E+03  d E =-.506300E+01
 curvature:  -0.09 expect dE=-0.534E+00 dE for cont linesearch -0.220E-03
 trial: gam= 0.01805 g(F)=  0.619E+01 g(S)=  0.000E+00 ort = 0.869E+00 (trialstep = 0.811E+00)
 search vector abs. value=  0.632E+01
 bond charge predicted
       N       E                     dE             d eps       ncg     rms          rms(c)
DAV:   1    -0.327616775279E+03    0.11267E+02   -0.17851E+03  7488   0.959E+01    0.230E+01
RMM:   2    -0.383692351891E+03   -0.56076E+02   -0.16314E+02  7715   0.295E+01    0.129E+02
RMM:   3    -0.434068543103E+03   -0.50376E+02   -0.30116E+01 10111   0.920E+00    0.179E+02
RMM:   4    -0.401377415466E+03    0.32691E+02   -0.35359E+00  8263   0.299E+00    0.159E+02
RMM:   5    -0.390560134248E+03    0.10817E+02   -0.94651E-01  9294   0.134E+00    0.148E+02
RMM:   6    -0.378972753684E+03    0.11587E+02   -0.16544E+00  8030   0.228E+00    0.135E+02
RMM:   7    -0.364381466437E+03    0.14591E+02   -0.86303E-01  8602   0.161E+00    0.112E+02
RMM:   8    -0.354415132595E+03    0.99663E+01   -0.41498E+00  7905   0.391E+00    0.841E+01
RMM:   9    -0.361307663339E+03   -0.68925E+01   -0.12055E+01  8198   0.574E+00    0.487E+01
RMM:  10    -0.346929287682E+03    0.14378E+02   -0.16383E+00  7837   0.321E+00    0.361E+01
RMM:  11    -0.348723477791E+03   -0.17942E+01   -0.64159E-01  8072   0.159E+00    0.366E+01
RMM:  12    -0.342926593965E+03    0.57969E+01   -0.93542E-01  7859   0.182E+00    0.338E+01
RMM:  13    -0.341040194661E+03    0.18864E+01   -0.58416E-01  7960   0.149E+00    0.335E+01
RMM:  14    -0.341393296157E+03   -0.35310E+00   -0.41983E-01  7734   0.129E+00    0.315E+01
RMM:  15    -0.342767465165E+03   -0.13742E+01   -0.52546E-01  7980   0.137E+00    0.346E+01
RMM:  16    -0.342589504440E+03    0.17796E+00   -0.28080E-01  7786   0.101E+00    0.356E+01
RMM:  17    -0.344629992653E+03   -0.20405E+01   -0.29970E-01  7582   0.125E+00    0.413E+01
RMM:  18    -0.344805723684E+03   -0.17573E+00   -0.94302E-02  9174   0.538E-01    0.415E+01
RMM:  19    -0.344694734182E+03    0.11099E+00   -0.10213E-02  9528   0.157E-01    0.413E+01
RMM:  20    -0.345399001883E+03   -0.70427E+00   -0.87378E-03  7947   0.183E-01    0.426E+01
RMM:  21    -0.344249831363E+03    0.11492E+01   -0.22093E-02  7667   0.279E-01    0.405E+01
RMM:  22    -0.343321551163E+03    0.92828E+00   -0.53789E-02  8121   0.460E-01    0.384E+01
RMM:  23    -0.343244898454E+03    0.76653E-01   -0.71395E-03  8763   0.162E-01    0.382E+01
RMM:  24    -0.343535870860E+03   -0.29097E+00   -0.48524E-03  8422   0.127E-01    0.389E+01
RMM:  25    -0.343148904995E+03    0.38697E+00   -0.88371E-03  7630   0.191E-01    0.380E+01
RMM:  26    -0.340930174551E+03    0.22187E+01   -0.29135E-01  7673   0.112E+00    0.325E+01
RMM:  27    -0.339446909792E+03    0.14833E+01   -0.18054E-01  8425   0.846E-01    0.277E+01
RMM:  28    -0.339378203467E+03    0.68706E-01   -0.32616E-02  9388   0.319E-01    0.273E+01
RMM:  29    -0.338247326625E+03    0.11309E+01   -0.12495E-01  7904   0.685E-01    0.226E+01
RMM:  30    -0.338262776339E+03   -0.15450E-01   -0.23005E-02  9178   0.275E-01    0.228E+01
RMM:  31    -0.338170013189E+03    0.92763E-01   -0.66810E-03  9257   0.121E-01    0.224E+01
RMM:  32    -0.338193909465E+03   -0.23896E-01   -0.27709E-03  8154   0.877E-02    0.226E+01
RMM:  33    -0.338072281191E+03    0.12163E+00   -0.22349E-02  7778   0.307E-01    0.228E+01
RMM:  34    -0.338224846927E+03   -0.15257E+00   -0.47669E-02  7844   0.429E-01    0.214E+01
RMM:  35    -0.337489591206E+03    0.73526E+00   -0.31913E-01  7531   0.130E+00    0.223E+01
RMM:  36    -0.337326918825E+03    0.16267E+00   -0.86310E-02  9223   0.586E-01    0.194E+01
RMM:  37    -0.337377144539E+03   -0.50226E-01   -0.65898E-02  7963   0.506E-01    0.273E+01
RMM:  38    -0.337379824705E+03   -0.26802E-02   -0.13329E-02  8948   0.232E-01    0.271E+01
RMM:  39    -0.337407728651E+03   -0.27904E-01   -0.62347E-03  8900   0.130E-01    0.279E+01
RMM:  40    -0.337617753781E+03   -0.21003E+00   -0.13328E-02  8213   0.202E-01    0.329E+01
RMM:  41    -0.337342592512E+03    0.27516E+00   -0.29317E-02  7544   0.345E-01    0.222E+01
RMM:  42    -0.337146794252E+03    0.19580E+00   -0.61516E-02  8140   0.463E-01    0.116E+01
RMM:  43    -0.337068556669E+03    0.78238E-01   -0.15193E-02  8520   0.256E-01    0.113E+01
RMM:  44    -0.337081041623E+03   -0.12485E-01   -0.80393E-03  7738   0.181E-01    0.145E+01
RMM:  45    -0.337015820021E+03    0.65222E-01   -0.83028E-03  7853   0.190E-01    0.980E+00
RMM:  46    -0.336982741641E+03    0.33078E-01   -0.11580E-02  8068   0.211E-01    0.633E+00
RMM:  47    -0.337220292909E+03   -0.23755E+00   -0.27458E-01  7552   0.110E+00    0.780E+00
RMM:  48    -0.337236925845E+03   -0.16633E-01   -0.35369E-02  8400   0.445E-01    0.723E+00
RMM:  49    -0.337173570856E+03    0.63355E-01   -0.10709E-02  7870   0.224E-01    0.667E+00
RMM:  50    -0.337108186509E+03    0.65384E-01   -0.10193E-02  7751   0.217E-01    0.619E+00
RMM:  51    -0.337082515460E+03    0.25671E-01   -0.60585E-03  8153   0.159E-01    0.649E+00
RMM:  52    -0.337087842690E+03   -0.53272E-02   -0.18075E-01  7654   0.847E-01    0.141E+01
RMM:  53    -0.336992166148E+03    0.95677E-01   -0.20876E-02  8267   0.314E-01    0.922E+00
RMM:  54    -0.336957106739E+03    0.35059E-01   -0.87990E-03  7993   0.189E-01    0.717E+00
RMM:  55    -0.336937346503E+03    0.19760E-01   -0.76720E-03  8225   0.182E-01    0.453E+00
RMM:  56    -0.336927527937E+03    0.98186E-02   -0.48112E-03  8522   0.137E-01    0.259E+00
RMM:  57    -0.336926096700E+03    0.14312E-02   -0.14603E-03  7475   0.829E-02    0.204E+00
RMM:  58    -0.336925576249E+03    0.52045E-03   -0.70939E-04  6463   0.571E-02    0.177E+00
RMM:  59    -0.336924510995E+03    0.10653E-02   -0.60393E-04  6096   0.529E-02    0.138E+00
RMM:  60    -0.336923362354E+03    0.11486E-02   -0.10790E-03  7091   0.655E-02    0.926E-01
RMM:  61    -0.336923000777E+03    0.36158E-03   -0.62600E-04  6309   0.539E-02    0.866E-01
RMM:  62    -0.336923088660E+03   -0.87883E-04   -0.47375E-04  5811   0.503E-02
   7 F= -.33692309E+03 E0= -.33692090E+03  d E =0.196039E+01
 trial-energy change:    1.960394  1 .order    2.973187   -5.034771   10.981145
 step:   0.3291(harm=  0.2549)  dis= 0.14358  next Energy=  -339.972875 (dE=-0.109E+01)
 bond charge predicted
       N       E                     dE             d eps       ncg     rms          rms(c)
DAV:   1    -0.338830319881E+03   -0.19073E+01   -0.68282E+02  7488   0.594E+01    0.140E+01
RMM:   2    -0.383185107795E+03   -0.44355E+02   -0.31221E+01  7582   0.115E+01    0.648E+01
RMM:   3    -0.347811486306E+03    0.35374E+02   -0.30666E+00  7629   0.472E+00    0.341E+01
RMM:   4    -0.347741407434E+03    0.70079E-01   -0.40075E-01  9654   0.116E+00    0.349E+01
RMM:   5    -0.351362336448E+03   -0.36209E+01   -0.14609E-01  8124   0.720E-01    0.416E+01
RMM:   6    -0.352047888170E+03   -0.68555E+00   -0.14205E-01  8224   0.762E-01    0.430E+01
RMM:   7    -0.352105968338E+03   -0.58080E-01   -0.47768E-01  7738   0.132E+00    0.420E+01
RMM:   8    -0.345825290448E+03    0.62807E+01   -0.44772E+00  7622   0.464E+00    0.327E+01
RMM:   9    -0.343951064671E+03    0.18742E+01   -0.88113E+00  8199   0.539E+00    0.309E+01
RMM:  10    -0.342725605111E+03    0.12255E+01   -0.93431E-01  7875   0.239E+00    0.245E+01
RMM:  11    -0.341981430197E+03    0.74417E+00   -0.18658E-01  8660   0.861E-01    0.207E+01
RMM:  12    -0.342033333337E+03   -0.51903E-01   -0.22591E-02  9583   0.260E-01    0.209E+01
RMM:  13    -0.341961228008E+03    0.72105E-01   -0.49401E-03  9054   0.113E-01    0.207E+01
RMM:  14    -0.342168797179E+03   -0.20757E+00   -0.29062E-01  7754   0.108E+00    0.212E+01
RMM:  15    -0.340726224264E+03    0.14426E+01   -0.44720E-01  7751   0.135E+00    0.124E+01
RMM:  16    -0.340675580182E+03    0.50644E-01   -0.31426E-01  8672   0.114E+00    0.132E+01
RMM:  17    -0.340663298909E+03    0.12281E-01   -0.10436E-01  9156   0.614E-01    0.120E+01
RMM:  18    -0.340499732359E+03    0.16357E+00   -0.28225E-02  9046   0.318E-01    0.104E+01
RMM:  19    -0.340387841558E+03    0.11189E+00   -0.40869E-02  7588   0.473E-01    0.909E+00
RMM:  20    -0.340268049134E+03    0.11979E+00   -0.38932E-02  8064   0.429E-01    0.721E+00
RMM:  21    -0.340203789280E+03    0.64260E-01   -0.24871E-02  9281   0.308E-01    0.656E+00
RMM:  22    -0.340131777274E+03    0.72012E-01   -0.92294E-03  7951   0.207E-01    0.542E+00
RMM:  23    -0.340044401854E+03    0.87375E-01   -0.14078E-02  8062   0.243E-01    0.426E+00
RMM:  24    -0.339987468441E+03    0.56933E-01   -0.10075E-02  8090   0.222E-01    0.297E+00
RMM:  25    -0.339963232130E+03    0.24236E-01   -0.83178E-03  9078   0.175E-01    0.238E+00
RMM:  26    -0.339953578098E+03    0.96540E-02   -0.32646E-03  8105   0.117E-01    0.204E+00
RMM:  27    -0.339933189674E+03    0.20388E-01   -0.54850E-03  7851   0.153E-01    0.123E+00
RMM:  28    -0.339928916343E+03    0.42733E-02   -0.33020E-03  9032   0.112E-01    0.105E+00
RMM:  29    -0.339928168994E+03    0.74735E-03   -0.78128E-04  6610   0.585E-02    0.812E-01
RMM:  30    -0.339927151404E+03    0.10176E-02   -0.16565E-03  7786   0.831E-02    0.501E-01
RMM:  31    -0.339926806604E+03    0.34480E-03   -0.36575E-04  5172   0.478E-02    0.458E-01
RMM:  32    -0.339926528521E+03    0.27808E-03   -0.18021E-04  4267   0.376E-02    0.332E-01
RMM:  33    -0.339926462525E+03    0.65996E-04   -0.10197E-04  4184   0.281E-02
   8 F= -.33992646E+03 E0= -.33992131E+03  d E =-.104298E+01
 curvature:  -0.13 expect dE=-0.662E+00 dE for cont linesearch -0.729E-03
 trial: gam= 0.86614 g(F)=  0.520E+01 g(S)=  0.000E+00 ort =-0.190E+00 (trialstep = 0.470E+00)
 search vector abs. value=  0.961E+01
 bond charge predicted
       N       E                     dE             d eps       ncg     rms          rms(c)
DAV:   1    -0.335585240089E+03    0.43413E+01   -0.91338E+02  7728   0.683E+01    0.103E+01
RMM:   2    -0.349469208595E+03   -0.13884E+02   -0.61994E+01  7517   0.158E+01    0.328E+01
RMM:   3    -0.351533061587E+03   -0.20639E+01   -0.71033E+00  8628   0.563E+00    0.346E+01
RMM:   4    -0.344712524790E+03    0.68205E+01   -0.25572E+00  7621   0.306E+00    0.235E+01
RMM:   5    -0.344048004646E+03    0.66452E+00   -0.32125E-01  7936   0.148E+00    0.229E+01
RMM:   6    -0.343923677545E+03    0.12433E+00   -0.12720E-01  8542   0.674E-01    0.218E+01
RMM:   7    -0.343885121082E+03    0.38556E-01   -0.29282E-01  7768   0.106E+00    0.209E+01
RMM:   8    -0.341920265000E+03    0.19649E+01   -0.28692E-01  7609   0.111E+00    0.135E+01
RMM:   9    -0.340835136249E+03    0.10851E+01   -0.52692E-01  8178   0.142E+00    0.569E+00
RMM:  10    -0.340756900003E+03    0.78236E-01   -0.77905E-02  8514   0.596E-01    0.470E+00
RMM:  11    -0.340691583569E+03    0.65316E-01   -0.56416E-02  7952   0.470E-01    0.317E+00
RMM:  12    -0.340720770949E+03   -0.29187E-01   -0.28681E-02  7885   0.339E-01    0.522E+00
RMM:  13    -0.340672876210E+03    0.47895E-01   -0.30132E-02  7619   0.387E-01    0.314E+00
RMM:  14    -0.340671406401E+03    0.14698E-02   -0.23465E-02  7715   0.345E-01    0.363E+00
RMM:  15    -0.340642896413E+03    0.28510E-01   -0.51723E-03  8093   0.141E-01    0.234E+00
RMM:  16    -0.340625846502E+03    0.17050E-01   -0.81399E-03  7732   0.185E-01    0.112E+00
RMM:  17    -0.340622475826E+03    0.33707E-02   -0.27497E-03  7864   0.120E-01    0.526E-01
RMM:  18    -0.340621981774E+03    0.49405E-03   -0.16315E-03  7239   0.893E-02    0.385E-01
RMM:  19    -0.340621987191E+03   -0.54165E-05   -0.40665E-04  5365   0.466E-02
   9 F= -.34062199E+03 E0= -.34061723E+03  d E =-.695525E+00
 trial-energy change:   -0.695525  1 .order   -0.740515   -2.365100    0.884071
 step:   0.3341(harm=  0.3421)  dis= 0.20133  next Energy=  -340.750898 (dE=-0.824E+00)
 bond charge predicted
       N       E                     dE             d eps       ncg     rms          rms(c)
DAV:   1    -0.340585629193E+03    0.36353E-01   -0.86123E+01  7488   0.208E+01    0.230E+00
RMM:   2    -0.341342341494E+03   -0.75671E+00   -0.21347E+00  7490   0.339E+00    0.132E+01
RMM:   3    -0.341321802588E+03    0.20539E-01   -0.21483E-01  8064   0.107E+00    0.969E+00
RMM:   4    -0.340925427682E+03    0.39637E+00   -0.98732E-02  7730   0.627E-01    0.692E+00
RMM:   5    -0.340939226110E+03   -0.13798E-01   -0.20296E-02  8135   0.358E-01    0.632E+00
RMM:   6    -0.340866525785E+03    0.72700E-01   -0.26234E-02  7894   0.309E-01    0.644E+00
RMM:   7    -0.340834656860E+03    0.31869E-01   -0.23835E-02  7749   0.295E-01    0.474E+00
RMM:   8    -0.340773109894E+03    0.61547E-01   -0.19964E-02  7645   0.274E-01    0.225E+00
RMM:   9    -0.340767171120E+03    0.59388E-02   -0.88811E-03  7651   0.207E-01    0.231E+00
RMM:  10    -0.340766239277E+03    0.93184E-03   -0.22542E-03  7461   0.104E-01    0.216E+00
RMM:  11    -0.340765071742E+03    0.11675E-02   -0.16651E-03  7169   0.867E-02    0.186E+00
RMM:  12    -0.340760174369E+03    0.48974E-02   -0.92534E-04  6644   0.686E-02    0.142E+00
RMM:  13    -0.340755123055E+03    0.50513E-02   -0.51540E-04  5830   0.516E-02    0.921E-01
RMM:  14    -0.340752502621E+03    0.26204E-02   -0.35532E-04  5110   0.432E-02    0.516E-01
RMM:  15    -0.340752035636E+03    0.46698E-03   -0.17068E-04  4320   0.358E-02    0.386E-01
RMM:  16    -0.340751806031E+03    0.22961E-03   -0.94503E-05  4117   0.289E-02    0.245E-01
RMM:  17    -0.340751718943E+03    0.87088E-04   -0.53920E-05  4073   0.213E-02
  10 F= -.34075172E+03 E0= -.34074751E+03  d E =-.825256E+00
 curvature:  -0.33 expect dE=-0.829E+00 dE for cont linesearch -0.134E-06
 trial: gam= 0.40025 g(F)=  0.255E+01 g(S)=  0.000E+00 ort = 0.199E-02 (trialstep = 0.443E+00)
 search vector abs. value=  0.409E+01
 bond charge predicted
       N       E                     dE             d eps       ncg     rms          rms(c)
DAV:   1    -0.340118799918E+03    0.63301E+00   -0.38190E+02  7488   0.457E+01    0.551E+00
RMM:   2    -0.348806230685E+03   -0.86874E+01   -0.17955E+01  7573   0.979E+00    0.344E+01
RMM:   3    -0.344488718680E+03    0.43175E+01   -0.15774E+00  7987   0.302E+00    0.221E+01
RMM:   4    -0.342218253585E+03    0.22705E+01   -0.36838E-01  7508   0.142E+00    0.159E+01
RMM:   5    -0.341409037326E+03    0.80922E+00   -0.32010E-01  8238   0.105E+00    0.535E+00
RMM:   6    -0.341516775852E+03   -0.10774E+00   -0.15351E-01  7878   0.780E-01    0.763E+00
RMM:   7    -0.341394952816E+03    0.12182E+00   -0.67859E-02  7686   0.562E-01    0.640E+00
RMM:   8    -0.341392417597E+03    0.25352E-02   -0.58911E-02  7602   0.505E-01    0.628E+00
RMM:   9    -0.341365854302E+03    0.26563E-01   -0.46170E-02  7525   0.468E-01    0.518E+00
RMM:  10    -0.341351005748E+03    0.14849E-01   -0.12338E-01  7862   0.619E-01    0.420E+00
RMM:  11    -0.341285015057E+03    0.65991E-01   -0.20077E-02  7890   0.361E-01    0.216E+00
RMM:  12    -0.341282381409E+03    0.26336E-02   -0.36455E-03  8843   0.109E-01    0.212E+00
RMM:  13    -0.341281156688E+03    0.12247E-02   -0.62379E-04  6217   0.546E-02    0.209E+00
RMM:  14    -0.341269520438E+03    0.11636E-01   -0.43770E-03  7409   0.141E-01    0.125E+00
RMM:  15    -0.341265852884E+03    0.36676E-02   -0.27628E-03  7681   0.113E-01    0.884E-01
RMM:  16    -0.341265384013E+03    0.46887E-03   -0.55918E-04  5915   0.508E-02    0.811E-01
RMM:  17    -0.341264480392E+03    0.90362E-03   -0.26863E-04  4767   0.410E-02    0.693E-01
RMM:  18    -0.341263913051E+03    0.56734E-03   -0.18442E-04  4312   0.370E-02    0.591E-01
RMM:  19    -0.341263074548E+03    0.83850E-03   -0.32587E-04  5056   0.381E-02    0.366E-01
RMM:  20    -0.341262845766E+03    0.22878E-03   -0.12912E-04  4168   0.298E-02    0.257E-01
RMM:  21    -0.341262787743E+03    0.58022E-04   -0.76564E-05  4105   0.245E-02
  11 F= -.34126279E+03 E0= -.34125785E+03  d E =-.511069E+00
 trial-energy change:   -0.511069  1 .order   -0.518643   -1.128715    0.091430
 step:   0.4085(harm=  0.4097)  dis= 0.11277  next Energy=  -341.266339 (dE=-0.515E+00)
 bond charge predicted
       N       E                     dE             d eps       ncg     rms          rms(c)
DAV:   1    -0.341262038706E+03    0.80706E-03   -0.23535E+00  7728   0.360E+00    0.356E-01
RMM:   2    -0.341285296715E+03   -0.23258E-01   -0.58986E-02  7451   0.619E-01    0.259E+00
RMM:   3    -0.341277810646E+03    0.74861E-02   -0.51920E-03  7832   0.183E-01    0.142E+00
RMM:   4    -0.341274515787E+03    0.32949E-02   -0.24984E-03  7263   0.106E-01    0.154E+00
RMM:   5    -0.341268513220E+03    0.60026E-02   -0.75202E-04  6369   0.704E-02    0.816E-01
RMM:   6    -0.341267130208E+03    0.13830E-02   -0.49217E-04  5646   0.492E-02    0.553E-01
RMM:   7    -0.341267147756E+03   -0.17548E-04   -0.27980E-04  4741   0.391E-02
  12 F= -.34126715E+03 E0= -.34126211E+03  d E =-.515429E+00
 curvature:  -0.33 expect dE=-0.346E+00 dE for cont linesearch -0.151E-05
 trial: gam= 0.34771 g(F)=  0.105E+01 g(S)=  0.000E+00 ort = 0.434E-02 (trialstep = 0.436E+00)
 search vector abs. value=  0.155E+01
 bond charge predicted
       N       E                     dE             d eps       ncg     rms          rms(c)
DAV:   1    -0.341186979094E+03    0.80151E-01   -0.14475E+02  7488   0.289E+01    0.350E+00
RMM:   2    -0.343434199502E+03   -0.22472E+01   -0.51756E+00  7486   0.561E+00    0.226E+01
RMM:   3    -0.342366155376E+03    0.10680E+01   -0.36911E-01  7849   0.164E+00    0.133E+01
RMM:   4    -0.342155277172E+03    0.21088E+00   -0.13038E-01  7840   0.733E-01    0.153E+01
RMM:   5    -0.342023337558E+03    0.13194E+00   -0.22020E-02  8128   0.391E-01    0.140E+01
RMM:   6    -0.341597985950E+03    0.42535E+00   -0.77479E-02  7793   0.507E-01    0.637E+00
RMM:   7    -0.341579882778E+03    0.18103E-01   -0.42608E-02  7834   0.454E-01    0.623E+00
RMM:   8    -0.341564548542E+03    0.15334E-01   -0.21181E-02  7745   0.289E-01    0.630E+00
RMM:   9    -0.341556766862E+03    0.77817E-02   -0.56754E-02  7586   0.484E-01    0.329E+00
RMM:  10    -0.341528749331E+03    0.28018E-01   -0.33596E-02  7949   0.368E-01    0.245E+00
RMM:  11    -0.341519347789E+03    0.94015E-02   -0.36521E-03  7952   0.154E-01    0.200E+00
RMM:  12    -0.341517077901E+03    0.22699E-02   -0.88589E-04  6864   0.604E-02    0.182E+00
RMM:  13    -0.341515125345E+03    0.19526E-02   -0.22699E-03  7490   0.996E-02    0.158E+00
RMM:  14    -0.341507356978E+03    0.77684E-02   -0.23968E-03  7440   0.997E-02    0.743E-01
RMM:  15    -0.341505774316E+03    0.15827E-02   -0.96464E-04  6784   0.636E-02    0.496E-01
RMM:  16    -0.341505421041E+03    0.35328E-03   -0.14442E-04  4179   0.337E-02    0.444E-01
RMM:  17    -0.341505137168E+03    0.28387E-03   -0.14397E-04  4159   0.331E-02    0.404E-01
RMM:  18    -0.341504469809E+03    0.66736E-03   -0.42509E-04  5308   0.421E-02    0.196E-01
RMM:  19    -0.341504366658E+03    0.10315E-03   -0.15308E-04  4228   0.329E-02    0.141E-01
RMM:  20    -0.341504325081E+03    0.41577E-04   -0.54871E-05  4073   0.242E-02
  13 F= -.34150433E+03 E0= -.34149902E+03  d E =-.237177E+00
 trial-energy change:   -0.237177  1 .order   -0.240625   -0.459976   -0.021273
 step:   0.4582(harm=  0.4571)  dis= 0.07042  next Energy=  -341.504867 (dE=-0.238E+00)
 bond charge predicted
       N       E                     dE             d eps       ncg     rms          rms(c)
DAV:   1    -0.341504094121E+03    0.27254E-03   -0.37976E-01  7904   0.148E+00    0.184E-01
RMM:   2    -0.341511427957E+03   -0.73338E-02   -0.12035E-02  7454   0.270E-01    0.161E+00
RMM:   3    -0.341508515319E+03    0.29126E-02   -0.13164E-03  6988   0.925E-02    0.115E+00
RMM:   4    -0.341505762507E+03    0.27528E-02   -0.14502E-04  4246   0.431E-02    0.671E-01
RMM:   5    -0.341505541018E+03    0.22149E-03   -0.85510E-05  4093   0.280E-02    0.648E-01
RMM:   6    -0.341506401796E+03   -0.86078E-03   -0.78878E-05  4023   0.252E-02    0.812E-01
RMM:   7    -0.341505756835E+03    0.64496E-03   -0.79675E-05  4068   0.248E-02    0.658E-01
RMM:   8    -0.341505383111E+03    0.37372E-03   -0.21039E-04  4467   0.347E-02    0.445E-01
RMM:   9    -0.341504837234E+03    0.54588E-03   -0.15210E-04  4237   0.317E-02    0.102E-01
RMM:  10    -0.341504883054E+03   -0.45821E-04   -0.48348E-05  3964   0.239E-02
  14 F= -.34150488E+03 E0= -.34149935E+03  d E =-.237735E+00
 curvature:  -0.34 expect dE=-0.184E+00 dE for cont linesearch -0.795E-08
 trial: gam= 0.53170 g(F)=  0.548E+00 g(S)=  0.000E+00 ort =-0.192E-03 (trialstep = 0.440E+00)
 search vector abs. value=  0.986E+00
 bond charge predicted
       N       E                     dE             d eps       ncg     rms          rms(c)
DAV:   1    -0.341399836274E+03    0.10500E+00   -0.93168E+01  7488   0.229E+01    0.258E+00
RMM:   2    -0.344728696810E+03   -0.33289E+01   -0.26609E+00  7564   0.404E+00    0.206E+01
RMM:   3    -0.342004862948E+03    0.27238E+01   -0.31510E-01  7681   0.142E+00    0.937E+00
RMM:   4    -0.341766796401E+03    0.23807E+00   -0.13534E-01  7667   0.733E-01    0.641E+00
RMM:   5    -0.341718857140E+03    0.47939E-01   -0.26133E-02  7961   0.370E-01    0.503E+00
RMM:   6    -0.341634969343E+03    0.83888E-01   -0.18082E-02  8039   0.259E-01    0.292E+00
RMM:   7    -0.341642386771E+03   -0.74174E-02   -0.36756E-02  8255   0.332E-01    0.282E+00
RMM:   8    -0.341616552495E+03    0.25834E-01   -0.21273E-02  7810   0.293E-01    0.159E+00
RMM:   9    -0.341607872082E+03    0.86804E-02   -0.13836E-02  7578   0.255E-01    0.115E+00
RMM:  10    -0.341606768618E+03    0.11035E-02   -0.67509E-03  7617   0.188E-01    0.923E-01
RMM:  11    -0.341603235612E+03    0.35330E-02   -0.32154E-03  7288   0.122E-01    0.453E-01
RMM:  12    -0.341602804631E+03    0.43098E-03   -0.11027E-03  6875   0.664E-02    0.373E-01
RMM:  13    -0.341602607117E+03    0.19751E-03   -0.20775E-04  4445   0.404E-02    0.321E-01
RMM:  14    -0.341602410353E+03    0.19676E-03   -0.14084E-04  4189   0.332E-02    0.148E-01
RMM:  15    -0.341602410030E+03    0.32335E-06   -0.12069E-04  4141   0.291E-02
  15 F= -.34160241E+03 E0= -.34159638E+03  d E =-.975270E-01
 trial-energy change:   -0.097527  1 .order   -0.095575   -0.241262    0.050111
 step:   0.3671(harm=  0.3647)  dis= 0.03075  next Energy=  -341.606571 (dE=-0.102E+00)
 bond charge predicted
       N       E                     dE             d eps       ncg     rms          rms(c)
DAV:   1    -0.341601248027E+03    0.11623E-02   -0.25800E+00  7504   0.381E+00    0.440E-01
RMM:   2    -0.341710469002E+03   -0.10922E+00   -0.80684E-02  7552   0.712E-01    0.583E+00
RMM:   3    -0.341617458260E+03    0.93011E-01   -0.96144E-03  7558   0.255E-01    0.157E+00
RMM:   4    -0.341614711739E+03    0.27465E-02   -0.32194E-03  7121   0.139E-01    0.155E+00
RMM:   5    -0.341607419647E+03    0.72921E-02   -0.20630E-03  7366   0.843E-02    0.509E-01
RMM:   6    -0.341607983967E+03   -0.56432E-03   -0.83790E-04  6455   0.605E-02    0.521E-01
RMM:   7    -0.341606817964E+03    0.11660E-02   -0.54963E-04  5948   0.553E-02    0.325E-01
RMM:   8    -0.341607017917E+03   -0.19995E-03   -0.44706E-04  5505   0.474E-02    0.335E-01
RMM:   9    -0.341606556387E+03    0.46153E-03   -0.37364E-04  5152   0.458E-02    0.210E-01
RMM:  10    -0.341606424149E+03    0.13224E-03   -0.12616E-04  4078   0.334E-02    0.662E-02
RMM:  11    -0.341606415230E+03    0.89191E-05   -0.38887E-05  3884   0.211E-02
  16 F= -.34160642E+03 E0= -.34160038E+03  d E =-.101532E+00
 curvature:  -0.33 expect dE=-0.110E+00 dE for cont linesearch -0.143E-05
 trial: gam= 0.58042 g(F)=  0.335E+00 g(S)=  0.000E+00 ort = 0.207E-02 (trialstep = 0.426E+00)
 search vector abs. value=  0.670E+00
 bond charge predicted
       N       E                     dE             d eps       ncg     rms          rms(c)
DAV:   1    -0.341532195764E+03    0.74228E-01   -0.60585E+01  7488   0.185E+01    0.220E+00
RMM:   2    -0.343022104940E+03   -0.14899E+01   -0.20151E+00  7512   0.357E+00    0.198E+01
RMM:   3    -0.342042725889E+03    0.97938E+00   -0.19049E-01  8061   0.107E+00    0.924E+00
RMM:   4    -0.342103508247E+03   -0.60782E-01   -0.99065E-02  7708   0.649E-01    0.126E+01
RMM:   5    -0.342152183567E+03   -0.48675E-01   -0.58057E-02  8769   0.463E-01    0.117E+01
RMM:   6    -0.341883465176E+03    0.26872E+00   -0.17845E-02  8019   0.259E-01    0.890E+00
RMM:   7    -0.341962631454E+03   -0.79166E-01   -0.83899E-03  7834   0.194E-01    0.967E+00
RMM:   8    -0.341724102088E+03    0.23853E+00   -0.29387E-02  7640   0.340E-01    0.422E+00
RMM:   9    -0.341684137535E+03    0.39965E-01   -0.15162E-02  8133   0.249E-01    0.249E+00
RMM:  10    -0.341685374102E+03   -0.12366E-02   -0.27218E-03  7313   0.130E-01    0.288E+00
RMM:  11    -0.341681696937E+03    0.36772E-02   -0.15460E-03  7411   0.841E-02    0.251E+00
RMM:  12    -0.341665856577E+03    0.15840E-01   -0.14469E-03  7298   0.807E-02    0.141E+00
RMM:  13    -0.341659607609E+03    0.62490E-02   -0.13169E-03  7264   0.766E-02    0.802E-01
RMM:  14    -0.341657553874E+03    0.20537E-02   -0.52909E-04  5784   0.510E-02    0.503E-01
RMM:  15    -0.341656830569E+03    0.72330E-03   -0.48624E-04  5555   0.445E-02    0.282E-01
RMM:  16    -0.341656680427E+03    0.15014E-03   -0.26046E-04  4597   0.403E-02    0.254E-01
RMM:  17    -0.341656649205E+03    0.31222E-04   -0.14030E-04  4128   0.345E-02
  17 F= -.34165665E+03 E0= -.34165055E+03  d E =-.502340E-01
 trial-energy change:   -0.050234  1 .order   -0.050021   -0.143260    0.043218
 step:   0.3271(harm=  0.3271)  dis= 0.01869  next Energy=  -341.661444 (dE=-0.550E-01)
 bond charge predicted
       N       E                     dE             d eps       ncg     rms          rms(c)
DAV:   1    -0.341655125664E+03    0.15548E-02   -0.32505E+00  7488   0.428E+00    0.494E-01
RMM:   2    -0.341677993497E+03   -0.22868E-01   -0.87887E-02  7464   0.776E-01    0.264E+00
RMM:   3    -0.341663149794E+03    0.14844E-01   -0.72704E-03  8035   0.214E-01    0.560E-01
RMM:   4    -0.341664018289E+03   -0.86849E-03   -0.11602E-03  6684   0.748E-02    0.109E+00
RMM:   5    -0.341681863060E+03   -0.17845E-01   -0.12471E-03  7178   0.572E-02    0.255E+00
RMM:   6    -0.341690831599E+03   -0.89685E-02   -0.84562E-04  6322   0.645E-02    0.313E+00
RMM:   7    -0.341693132421E+03   -0.23008E-02   -0.94607E-04  6403   0.621E-02    0.296E+00
RMM:   8    -0.341668591331E+03    0.24541E-01   -0.17374E-03  7112   0.811E-02    0.153E+00
RMM:   9    -0.341661941822E+03    0.66495E-02   -0.14265E-03  7026   0.805E-02    0.351E-01
RMM:  10    -0.341661577131E+03    0.36469E-03   -0.39331E-04  5268   0.527E-02    0.130E-01
RMM:  11    -0.341661621511E+03   -0.44380E-04   -0.90567E-05  4065   0.307E-02
  18 F= -.34166162E+03 E0= -.34165547E+03  d E =-.552063E-01
 curvature:  -0.33 expect dE=-0.445E-01 dE for cont linesearch -0.800E-06
 trial: gam= 0.41285 g(F)=  0.137E+00 g(S)=  0.000E+00 ort = 0.128E-02 (trialstep = 0.406E+00)
 search vector abs. value=  0.252E+00
 bond charge predicted
       N       E                     dE             d eps       ncg     rms          rms(c)
DAV:   1    -0.341651058164E+03    0.10519E-01   -0.20727E+01  7488   0.109E+01    0.120E+00
RMM:   2    -0.342471238583E+03   -0.82018E+00   -0.57905E-01  7543   0.183E+00    0.123E+01
RMM:   3    -0.341807214015E+03    0.66402E+00   -0.73907E-02  7601   0.687E-01    0.606E+00
RMM:   4    -0.341743331863E+03    0.63882E-01   -0.21333E-02  7597   0.344E-01    0.437E+00
RMM:   5    -0.341749235416E+03   -0.59036E-02   -0.38120E-03  7750   0.145E-01    0.445E+00
RMM:   6    -0.341722532376E+03    0.26703E-01   -0.22657E-03  7630   0.916E-02    0.362E+00
RMM:   7    -0.341718656310E+03    0.38761E-02   -0.52193E-03  7977   0.130E-01    0.318E+00
RMM:   8    -0.341694994569E+03    0.23662E-01   -0.93884E-03  7806   0.187E-01    0.123E+00
RMM:   9    -0.341691521901E+03    0.34727E-02   -0.52151E-03  7596   0.163E-01    0.690E-01
RMM:  10    -0.341690438477E+03    0.10834E-02   -0.13188E-03  7326   0.815E-02    0.497E-01
RMM:  11    -0.341689929690E+03    0.50879E-03   -0.70386E-04  6117   0.598E-02    0.243E-01
RMM:  12    -0.341689829132E+03    0.10056E-03   -0.39494E-04  5353   0.504E-02    0.192E-01
RMM:  13    -0.341689780624E+03    0.48507E-04   -0.13893E-04  4172   0.358E-02
  19 F= -.34168978E+03 E0= -.34168361E+03  d E =-.281591E-01
 trial-energy change:   -0.028159  1 .order   -0.028596   -0.055652   -0.001540
 step:   0.4182(harm=  0.4176)  dis= 0.01578  next Energy=  -341.689804 (dE=-0.282E-01)
 bond charge predicted
       N       E                     dE             d eps       ncg     rms          rms(c)
DAV:   1    -0.341689696119E+03    0.13301E-03   -0.18875E-02  8176   0.332E-01    0.159E-01
RMM:   2    -0.341721805114E+03   -0.32109E-01   -0.38382E-03  7806   0.110E-01    0.313E+00
RMM:   3    -0.341692058846E+03    0.29746E-01   -0.27017E-03  7178   0.105E-01    0.646E-01
RMM:   4    -0.341689794119E+03    0.22647E-02   -0.48104E-04  5584   0.691E-02    0.115E-01
RMM:   5    -0.341689731055E+03    0.63064E-04   -0.78257E-05  3935   0.284E-02
  20 F= -.34168973E+03 E0= -.34168378E+03  d E =-.281095E-01
 curvature:  -0.38 expect dE=-0.372E-01 dE for cont linesearch -0.148E-04
 trial: gam= 0.74845 g(F)=  0.972E-01 g(S)=  0.000E+00 ort =-0.313E-02 (trialstep = 0.408E+00)
 search vector abs. value=  0.234E+00
 bond charge predicted
       N       E                     dE             d eps       ncg     rms          rms(c)
DAV:   1    -0.341678131001E+03    0.11663E-01   -0.19752E+01  7504   0.106E+01    0.108E+00
RMM:   2    -0.342169133968E+03   -0.49100E+00   -0.54172E-01  7527   0.174E+00    0.126E+01
RMM:   3    -0.341816351510E+03    0.35278E+00   -0.55866E-02  7738   0.595E-01    0.467E+00
RMM:   4    -0.341772318914E+03    0.44033E-01   -0.18128E-02  7594   0.327E-01    0.455E+00
RMM:   5    -0.341758514034E+03    0.13805E-01   -0.11929E-02  8421   0.208E-01    0.347E+00
RMM:   6    -0.341726307023E+03    0.32207E-01   -0.33143E-03  7388   0.116E-01    0.215E+00
RMM:   7    -0.341735394049E+03   -0.90870E-02   -0.25871E-03  7199   0.110E-01    0.256E+00
RMM:   8    -0.341723408474E+03    0.11986E-01   -0.25097E-03  7425   0.957E-02    0.178E+00
RMM:   9    -0.341717614441E+03    0.57940E-02   -0.26464E-03  7447   0.102E-01    0.863E-01
RMM:  10    -0.341716431925E+03    0.11825E-02   -0.71943E-04  6327   0.623E-02    0.566E-01
RMM:  11    -0.341717052823E+03   -0.62090E-03   -0.16977E-04  4300   0.358E-02    0.720E-01
RMM:  12    -0.341716565799E+03    0.48702E-03   -0.84359E-05  4097   0.278E-02    0.525E-01
RMM:  13    -0.341715997025E+03    0.56877E-03   -0.90768E-05  4109   0.253E-02    0.266E-01
RMM:  14    -0.341715858250E+03    0.13878E-03   -0.68204E-05  4071   0.237E-02    0.150E-01
RMM:  15    -0.341715875394E+03   -0.17144E-04   -0.36352E-05  3904   0.168E-02
  21 F= -.34171588E+03 E0= -.34170964E+03  d E =-.261443E-01
 trial-energy change:   -0.026144  1 .order   -0.026108   -0.038758   -0.013459
 step:   0.6258(harm=  0.6258)  dis= 0.02791  next Energy=  -341.719420 (dE=-0.297E-01)
 bond charge predicted
       N       E                     dE             d eps       ncg     rms          rms(c)
DAV:   1    -0.341709332063E+03    0.65262E-02   -0.56005E+00  7504   0.563E+00    0.523E-01
RMM:   2    -0.341825060784E+03   -0.11573E+00   -0.14265E-01  7491   0.904E-01    0.660E+00
RMM:   3    -0.341736615365E+03    0.88445E-01   -0.12785E-02  7695   0.303E-01    0.210E+00
RMM:   4    -0.341735531009E+03    0.10844E-02   -0.37431E-03  7344   0.152E-01    0.246E+00
RMM:   5    -0.341734046146E+03    0.14849E-02   -0.25601E-03  7725   0.995E-02    0.216E+00
RMM:   6    -0.341723443857E+03    0.10602E-01   -0.87965E-04  6445   0.609E-02    0.136E+00
RMM:   7    -0.341726114126E+03   -0.26703E-02   -0.90274E-04  6518   0.644E-02    0.148E+00
RMM:   8    -0.341721901038E+03    0.42131E-02   -0.82523E-04  6675   0.588E-02    0.968E-01
RMM:   9    -0.341720697375E+03    0.12037E-02   -0.58120E-04  5952   0.545E-02    0.653E-01
RMM:  10    -0.341720236479E+03    0.46090E-03   -0.22587E-04  4492   0.376E-02    0.444E-01
RMM:  11    -0.341720199308E+03    0.37171E-04   -0.63481E-05  4072   0.257E-02
  22 F= -.34172020E+03 E0= -.34171368E+03  d E =-.304683E-01
 curvature:  -0.77 expect dE=-0.106E+00 dE for cont linesearch -0.341E-06
 trial: gam= 1.38640 g(F)=  0.138E+00 g(S)=  0.000E+00 ort =-0.321E-03 (trialstep = 0.180E+00)
 search vector abs. value=  0.586E+00
 bond charge predicted
       N       E                     dE             d eps       ncg     rms          rms(c)
DAV:   1    -0.341718221628E+03    0.20149E-02   -0.97511E+00  7488   0.728E+00    0.826E-01
RMM:   2    -0.342662261676E+03   -0.94404E+00   -0.28867E-01  7653   0.120E+00    0.135E+01
RMM:   3    -0.341776095074E+03    0.88617E+00   -0.49150E-02  7591   0.535E-01    0.362E+00
RMM:   4    -0.341788804477E+03   -0.12709E-01   -0.11197E-02  7666   0.252E-01    0.409E+00
RMM:   5    -0.341792353300E+03   -0.35488E-02   -0.16045E-03  7169   0.867E-02    0.413E+00
RMM:   6    -0.341778935930E+03    0.13417E-01   -0.75087E-04  6139   0.548E-02    0.382E+00
RMM:   7    -0.341781577644E+03   -0.26417E-02   -0.11125E-03  6768   0.652E-02    0.367E+00
RMM:   8    -0.341753634637E+03    0.27943E-01   -0.33018E-03  7461   0.110E-01    0.202E+00
RMM:   9    -0.341738895934E+03    0.14739E-01   -0.34649E-03  7529   0.123E-01    0.618E-01
RMM:  10    -0.341738265355E+03    0.63058E-03   -0.10406E-03  6823   0.780E-02    0.567E-01
RMM:  11    -0.341738543397E+03   -0.27804E-03   -0.36731E-04  5049   0.445E-02    0.683E-01
RMM:  12    -0.341737148713E+03    0.13947E-02   -0.38034E-04  5269   0.476E-02    0.339E-01
RMM:  13    -0.341736495865E+03    0.65285E-03   -0.19816E-04  4328   0.372E-02    0.152E-01
RMM:  14    -0.341736481033E+03    0.14832E-04   -0.90919E-05  4081   0.292E-02
  23 F= -.34173648E+03 E0= -.34172975E+03  d E =-.162817E-01
 trial-energy change:   -0.016282  1 .order   -0.017037   -0.024798   -0.009277
 step:   0.2877(harm=  0.2877)  dis= 0.02192  next Energy=  -341.740009 (dE=-0.198E-01)
 bond charge predicted
       N       E                     dE             d eps       ncg     rms          rms(c)
DAV:   1    -0.341732525032E+03    0.39708E-02   -0.34767E+00  7488   0.434E+00    0.347E-01
RMM:   2    -0.341775193831E+03   -0.42669E-01   -0.78362E-02  7454   0.680E-01    0.358E+00
RMM:   3    -0.341745156892E+03    0.30037E-01   -0.46929E-03  8004   0.194E-01    0.164E+00
RMM:   4    -0.341767251870E+03   -0.22095E-01   -0.17566E-03  7577   0.793E-02    0.300E+00
RMM:   5    -0.341758285362E+03    0.89665E-02   -0.68955E-04  5850   0.576E-02    0.266E+00
RMM:   6    -0.341753352458E+03    0.49329E-02   -0.26929E-04  4784   0.403E-02    0.233E+00
RMM:   7    -0.341755106637E+03   -0.17542E-02   -0.11533E-03  6613   0.717E-02    0.219E+00
RMM:   8    -0.341740345502E+03    0.14761E-01   -0.17148E-03  7110   0.783E-02    0.668E-01
RMM:   9    -0.341740629189E+03   -0.28369E-03   -0.58505E-04  5689   0.639E-02    0.625E-01
RMM:  10    -0.341740102046E+03    0.52714E-03   -0.16380E-04  4238   0.328E-02    0.506E-01
RMM:  11    -0.341739952563E+03    0.14948E-03   -0.60187E-05  4031   0.242E-02    0.450E-01
RMM:  12    -0.341739939443E+03    0.13121E-04   -0.35974E-05  3789   0.160E-02
  24 F= -.34173994E+03 E0= -.34173331E+03  d E =-.197401E-01
 curvature:  -0.61 expect dE=-0.546E-01 dE for cont linesearch -0.172E-04
 trial: gam= 0.68351 g(F)=  0.891E-01 g(S)=  0.000E+00 ort =-0.406E-02 (trialstep = 0.202E+00)
 search vector abs. value=  0.357E+00
 bond charge predicted
       N       E                     dE             d eps       ncg     rms          rms(c)
DAV:   1    -0.341737849737E+03    0.21028E-02   -0.71629E+00  7488   0.612E+00    0.808E-01
RMM:   2    -0.342341637005E+03   -0.60379E+00   -0.25632E-01  7701   0.110E+00    0.136E+01
RMM:   3    -0.341793183685E+03    0.54845E+00   -0.42880E-02  7576   0.489E-01    0.227E+00
RMM:   4    -0.341775072697E+03    0.18111E-01   -0.10510E-02  7450   0.275E-01    0.279E+00
RMM:   5    -0.341754567070E+03    0.20506E-01   -0.53541E-03  8060   0.129E-01    0.976E-01
RMM:   6    -0.341753584303E+03    0.98277E-03   -0.23374E-03  7223   0.974E-02    0.120E+00
RMM:   7    -0.341753256152E+03    0.32815E-03   -0.22344E-04  4619   0.463E-02    0.104E+00
RMM:   8    -0.341754154894E+03   -0.89874E-03   -0.11157E-03  6803   0.695E-02    0.120E+00
RMM:   9    -0.341754421165E+03   -0.26627E-03   -0.84588E-04  6337   0.592E-02    0.106E+00
RMM:  10    -0.341751565659E+03    0.28555E-02   -0.47767E-04  5523   0.504E-02    0.498E-01
RMM:  11    -0.341751223254E+03    0.34241E-03   -0.13000E-04  4114   0.353E-02    0.336E-01
RMM:  12    -0.341751135841E+03    0.87413E-04   -0.49856E-05  4056   0.223E-02
  25 F= -.34175114E+03 E0= -.34174397E+03  d E =-.111964E-01
 trial-energy change:   -0.011196  1 .order   -0.011840   -0.017403   -0.006277
 step:   0.3153(harm=  0.3153)  dis= 0.01726  next Energy=  -341.753550 (dE=-0.136E-01)
 bond charge predicted
       N       E                     dE             d eps       ncg     rms          rms(c)
DAV:   1    -0.341748806004E+03    0.24173E-02   -0.22900E+00  7488   0.346E+00    0.415E-01
RMM:   2    -0.341783002416E+03   -0.34196E-01   -0.61250E-02  7489   0.578E-01    0.368E+00
RMM:   3    -0.341769015879E+03    0.13987E-01   -0.60610E-03  7603   0.194E-01    0.187E+00
RMM:   4    -0.341767423532E+03    0.15923E-02   -0.39219E-03  7247   0.132E-01    0.215E+00
RMM:   5    -0.341761242794E+03    0.61807E-02   -0.12216E-03  6799   0.888E-02    0.142E+00
RMM:   6    -0.341754458830E+03    0.67840E-02   -0.14941E-03  7108   0.728E-02    0.865E-01
RMM:   7    -0.341753859776E+03    0.59905E-03   -0.41949E-04  5296   0.539E-02    0.569E-01
RMM:   8    -0.341753579806E+03    0.27997E-03   -0.43127E-04  5422   0.485E-02    0.410E-01
RMM:   9    -0.341753470701E+03    0.10911E-03   -0.18347E-04  4258   0.382E-02    0.446E-01
RMM:  10    -0.341753349767E+03    0.12093E-03   -0.84159E-05  4040   0.298E-02    0.372E-01
RMM:  11    -0.341753185370E+03    0.16440E-03   -0.35749E-05  3838   0.178E-02    0.257E-01
RMM:  12    -0.341753155372E+03    0.29997E-04   -0.16755E-05  3354   0.116E-02
  26 F= -.34175316E+03 E0= -.34174596E+03  d E =-.132159E-01
 curvature:  -0.65 expect dE=-0.276E-01 dE for cont linesearch -0.960E-05
 trial: gam= 0.42109 g(F)=  0.423E-01 g(S)=  0.000E+00 ort = 0.229E-02 (trialstep = 0.224E+00)
 search vector abs. value=  0.108E+00
 bond charge predicted
       N       E                     dE             d eps       ncg     rms          rms(c)
DAV:   1    -0.341754458079E+03   -0.12727E-02   -0.27342E+00  7488   0.389E+00    0.543E-01
RMM:   2    -0.341854830974E+03   -0.10037E+00   -0.80902E-02  7524   0.696E-01    0.548E+00
RMM:   3    -0.341812178576E+03    0.42652E-01   -0.16436E-02  7796   0.274E-01    0.382E+00
RMM:   4    -0.341764522781E+03    0.47656E-01   -0.59358E-03  7213   0.190E-01    0.137E+00
RMM:   5    -0.341772382925E+03   -0.78601E-02   -0.18127E-03  7445   0.971E-02    0.199E+00
RMM:   6    -0.341765800311E+03    0.65826E-02   -0.69186E-04  6023   0.594E-02    0.166E+00
RMM:   7    -0.341764856896E+03    0.94341E-03   -0.44234E-04  5240   0.454E-02    0.145E+00
RMM:   8    -0.341760702183E+03    0.41547E-02   -0.87785E-04  6446   0.630E-02    0.653E-01
RMM:   9    -0.341759680826E+03    0.10214E-02   -0.70027E-04  6157   0.596E-02    0.224E-01
RMM:  10    -0.341759739709E+03   -0.58883E-04   -0.22892E-04  4468   0.423E-02
  27 F= -.34175974E+03 E0= -.34175293E+03  d E =-.658434E-02
 trial-energy change:   -0.006584  1 .order   -0.006755   -0.009702   -0.003808
 step:   0.3692(harm=  0.3692)  dis= 0.01053  next Energy=  -341.761140 (dE=-0.798E-02)
 bond charge predicted
       N       E                     dE             d eps       ncg     rms          rms(c)
DAV:   1    -0.341758688098E+03    0.99273E-03   -0.11373E+00  7488   0.251E+00    0.504E-01
RMM:   2    -0.341829698604E+03   -0.71011E-01   -0.42461E-02  7617   0.482E-01    0.508E+00
RMM:   3    -0.341826952761E+03    0.27458E-02   -0.14280E-02  7670   0.242E-01    0.445E+00
RMM:   4    -0.341763538007E+03    0.63415E-01   -0.37500E-03  7047   0.176E-01    0.865E-01
RMM:   5    -0.341768020957E+03   -0.44829E-02   -0.70179E-04  6048   0.654E-02    0.153E+00
RMM:   6    -0.341764473260E+03    0.35477E-02   -0.31372E-04  4948   0.423E-02    0.124E+00
RMM:   7    -0.341766181029E+03   -0.17078E-02   -0.12779E-04  4139   0.328E-02    0.131E+00
RMM:   8    -0.341761984142E+03    0.41969E-02   -0.31307E-04  4944   0.414E-02    0.738E-01
RMM:   9    -0.341761213127E+03    0.77102E-03   -0.27780E-04  4739   0.422E-02    0.427E-01
RMM:  10    -0.341760829970E+03    0.38316E-03   -0.11629E-04  4108   0.302E-02    0.280E-01
RMM:  11    -0.341760868042E+03   -0.38072E-04   -0.38047E-05  3926   0.209E-02
  28 F= -.34176087E+03 E0= -.34175388E+03  d E =-.771267E-02
 curvature:  -0.46 expect dE=-0.171E-01 dE for cont linesearch -0.261E-05
 trial: gam= 0.96154 g(F)=  0.373E-01 g(S)=  0.000E+00 ort =-0.782E-03 (trialstep = 0.202E+00)
 search vector abs. value=  0.135E+00
 bond charge predicted
       N       E                     dE             d eps       ncg     rms          rms(c)
DAV:   1    -0.341760973272E+03   -0.14330E-03   -0.27417E+00  7488   0.392E+00    0.519E-01
RMM:   2    -0.342327085317E+03   -0.56611E+00   -0.12217E-01  7838   0.740E-01    0.129E+01
RMM:   3    -0.341783823160E+03    0.54326E+00   -0.24747E-02  7553   0.400E-01    0.172E+00
RMM:   4    -0.341777000209E+03    0.68230E-02   -0.49170E-03  7327   0.194E-01    0.204E+00
RMM:   5    -0.341768158887E+03    0.88413E-02   -0.40346E-03  8049   0.103E-01    0.104E+00
RMM:   6    -0.341766806827E+03    0.13521E-02   -0.64786E-04  6083   0.661E-02    0.603E-01
RMM:   7    -0.341769534001E+03   -0.27272E-02   -0.59238E-04  6103   0.564E-02    0.108E+00
RMM:   8    -0.341769507193E+03    0.26808E-04   -0.42228E-04  5313   0.476E-02
  29 F= -.34176951E+03 E0= -.34176205E+03  d E =-.863915E-02
 trial-energy change:   -0.008639  1 .order   -0.004664   -0.007362   -0.001967
 step:   0.2144(harm=  0.2750)  dis= 0.00610  next Energy=  -341.769571 (dE=-0.870E-02)
 bond charge predicted
       N       E                     dE             d eps       ncg     rms          rms(c)
DAV:   1    -0.341766435000E+03    0.30990E-02   -0.14787E-02  7872   0.297E-01    0.414E-01
RMM:   2    -0.342085495925E+03   -0.31906E+00   -0.27941E-02  7956   0.267E-01    0.872E+00
RMM:   3    -0.341775094274E+03    0.31040E+00   -0.19750E-02  7696   0.277E-01    0.140E+00
RMM:   4    -0.341767359301E+03    0.77350E-02   -0.33840E-03  7063   0.166E-01    0.579E-01
RMM:   5    -0.341766700619E+03    0.65868E-03   -0.85869E-04  6338   0.666E-02    0.372E-01
RMM:   6    -0.341766189107E+03    0.51151E-03   -0.32193E-04  4977   0.399E-02    0.181E-01
RMM:   7    -0.341766089158E+03    0.99949E-04   -0.10477E-04  3995   0.307E-02
  30 F= -.34176609E+03 E0= -.34175895E+03  d E =-.522112E-02
 curvature:  -0.16 expect dE=-0.337E-02 dE for cont linesearch -0.260E-03
 ZBRENT: increasing intervall
 opt :   0.2401  next Energy=  -341.766595 (dE=-0.573E-02)
 bond charge predicted
       N       E                     dE             d eps       ncg     rms          rms(c)
DAV:   1    -0.341766304153E+03   -0.11505E-03   -0.44932E-02  7600   0.503E-01    0.819E-02
RMM:   2    -0.341775711837E+03   -0.94077E-02   -0.20011E-03  7483   0.975E-02    0.175E+00
RMM:   3    -0.341766478491E+03    0.92333E-02   -0.45242E-04  5494   0.573E-02    0.146E-01
RMM:   4    -0.341766508180E+03   -0.29690E-04   -0.15576E-04  4109   0.425E-02
  31 F= -.34176651E+03 E0= -.34175941E+03  d E =-.564014E-02
 curvature:  -0.32 expect dE=-0.811E-02 dE for cont linesearch -0.278E-03
 ZBRENT: increasing intervall
 opt :   0.2917  next Energy=  -341.766873 (dE=-0.601E-02)
 bond charge predicted
       N       E                     dE             d eps       ncg     rms          rms(c)
DAV:   1    -0.341766539423E+03   -0.60932E-04   -0.18019E-01  7520   0.101E+00    0.112E-01
RMM:   2    -0.341778803534E+03   -0.12264E-01   -0.51655E-03  7506   0.171E-01    0.184E+00
RMM:   3    -0.341769726454E+03    0.90771E-02   -0.34991E-04  4968   0.669E-02    0.858E-01
RMM:   4    -0.341768794018E+03    0.93244E-03   -0.23714E-04  4551   0.396E-02    0.817E-01
RMM:   5    -0.341766963228E+03    0.18308E-02   -0.23405E-04  4533   0.323E-02    0.282E-01
RMM:   6    -0.341767078988E+03   -0.11576E-03   -0.67488E-05  3896   0.299E-02    0.257E-01
RMM:   7    -0.341767016099E+03    0.62889E-04   -0.63946E-05  3846   0.188E-02
  32 F= -.34176702E+03 E0= -.34175976E+03  d E =-.614806E-02
 curvature:  -0.42 expect dE=-0.122E-01 dE for cont linesearch -0.983E-04
 trial: gam= 0.56259 g(F)=  0.294E-01 g(S)=  0.000E+00 ort = 0.565E-02 (trialstep = 0.220E+00)
 search vector abs. value=  0.786E-01
 bond charge predicted
       N       E                     dE             d eps       ncg     rms          rms(c)
DAV:   1    -0.341768693607E+03   -0.16146E-02   -0.19315E+00  7488   0.336E+00    0.471E-01
RMM:   2    -0.342235814900E+03   -0.46712E+00   -0.78827E-02  7721   0.637E-01    0.103E+01
RMM:   3    -0.341780281084E+03    0.45553E+00   -0.23371E-02  7614   0.351E-01    0.108E+00
RMM:   4    -0.341777192135E+03    0.30889E-02   -0.36693E-03  7097   0.172E-01    0.135E+00
RMM:   5    -0.341779908044E+03   -0.27159E-02   -0.11440E-03  6806   0.680E-02    0.141E+00
RMM:   6    -0.341774519890E+03    0.53882E-02   -0.52600E-04  5725   0.485E-02    0.914E-01
RMM:   7    -0.341775095127E+03   -0.57524E-03   -0.41345E-04  5372   0.471E-02    0.882E-01
RMM:   8    -0.341772649282E+03    0.24458E-02   -0.40891E-04  5376   0.453E-02    0.417E-01
RMM:   9    -0.341772199588E+03    0.44969E-03   -0.28717E-04  4734   0.453E-02    0.159E-01
RMM:  10    -0.341772160272E+03    0.39316E-04   -0.87149E-05  4049   0.304E-02
  33 F= -.34177216E+03 E0= -.34176500E+03  d E =-.514417E-02
 trial-energy change:   -0.005144  1 .order   -0.005370   -0.007155   -0.003586
 step:   0.4401(harm=  0.4401)  dis= 0.00874  next Energy=  -341.774188 (dE=-0.717E-02)
 bond charge predicted
       N       E                     dE             d eps       ncg     rms          rms(c)
DAV:   1    -0.341769997959E+03    0.22016E-02   -0.19448E+00  7488   0.337E+00    0.325E-01
RMM:   2    -0.341798465241E+03   -0.28467E-01   -0.49473E-02  7429   0.573E-01    0.303E+00
RMM:   3    -0.341782042625E+03    0.16423E-01   -0.51250E-03  8082   0.177E-01    0.151E+00
RMM:   4    -0.341781370649E+03    0.67198E-03   -0.21636E-03  7135   0.103E-01    0.159E+00
RMM:   5    -0.341781726837E+03   -0.35619E-03   -0.64850E-04  6135   0.670E-02    0.150E+00
RMM:   6    -0.341775999645E+03    0.57272E-02   -0.28743E-04  4812   0.413E-02    0.961E-01
RMM:   7    -0.341775467219E+03    0.53243E-03   -0.41553E-04  5139   0.466E-02    0.686E-01
RMM:   8    -0.341773998209E+03    0.14690E-02   -0.39931E-04  5327   0.472E-02    0.192E-01
RMM:   9    -0.341774086524E+03   -0.88315E-04   -0.11655E-04  4105   0.337E-02
  34 F= -.34177409E+03 E0= -.34176709E+03  d E =-.707042E-02
 curvature:  -0.53 expect dE=-0.154E-01 dE for cont linesearch -0.166E-06
 trial: gam= 1.19806 g(F)=  0.291E-01 g(S)=  0.000E+00 ort = 0.157E-03 (trialstep = 0.146E+00)
 search vector abs. value=  0.142E+00
 bond charge predicted
       N       E                     dE             d eps       ncg     rms          rms(c)
DAV:   1    -0.341774283197E+03   -0.28499E-03   -0.15417E+00  7488   0.299E+00    0.441E-01
RMM:   2    -0.342113959211E+03   -0.33968E+00   -0.70147E-02  7816   0.564E-01    0.105E+01
RMM:   3    -0.341785246473E+03    0.32871E+00   -0.18469E-02  7588   0.329E-01    0.971E-01
RMM:   4    -0.341781933748E+03    0.33127E-02   -0.28946E-03  6997   0.176E-01    0.145E+00
RMM:   5    -0.341783187148E+03   -0.12534E-02   -0.10195E-03  6503   0.635E-02    0.157E+00
RMM:   6    -0.341779635572E+03    0.35516E-02   -0.21144E-04  4553   0.366E-02    0.116E+00
RMM:   7    -0.341781747974E+03   -0.21124E-02   -0.15529E-04  4235   0.362E-02    0.142E+00
RMM:   8    -0.341779978653E+03    0.17693E-02   -0.30023E-04  4904   0.402E-02    0.103E+00
RMM:   9    -0.341777376353E+03    0.26023E-02   -0.46744E-04  5363   0.462E-02    0.353E-01
RMM:  10    -0.341777124393E+03    0.25196E-03   -0.14741E-04  4154   0.357E-02    0.220E-01
RMM:  11    -0.341777144206E+03   -0.19813E-04   -0.49226E-05  4027   0.242E-02
  35 F= -.34177714E+03 E0= -.34176976E+03  d E =-.305768E-02
 trial-energy change:   -0.003058  1 .order   -0.003150   -0.004267   -0.002032
 step:   0.2780(harm=  0.2780)  dis= 0.00819  next Energy=  -341.778160 (dE=-0.407E-02)
 bond charge predicted
       N       E                     dE             d eps       ncg     rms          rms(c)
DAV:   1    -0.341775662663E+03    0.14617E-02   -0.12770E+00  7488   0.272E+00    0.215E-01
RMM:   2    -0.341800970959E+03   -0.25308E-01   -0.31112E-02  7455   0.441E-01    0.292E+00
RMM:   3    -0.341780692700E+03    0.20278E-01   -0.19105E-03  7228   0.138E-01    0.101E+00
RMM:   4    -0.341785437982E+03   -0.47453E-02   -0.49794E-04  5576   0.513E-02    0.158E+00
RMM:   5    -0.341781583565E+03    0.38544E-02   -0.13167E-04  4134   0.335E-02    0.121E+00
RMM:   6    -0.341783275725E+03   -0.16922E-02   -0.13870E-04  4245   0.345E-02    0.140E+00
RMM:   7    -0.341784020186E+03   -0.74446E-03   -0.98581E-05  4135   0.249E-02    0.141E+00
RMM:   8    -0.341778921106E+03    0.50991E-02   -0.56972E-04  5936   0.500E-02    0.592E-01
RMM:   9    -0.341778352486E+03    0.56862E-03   -0.21512E-04  4551   0.389E-02    0.248E-01
RMM:  10    -0.341778363383E+03   -0.10896E-04   -0.67908E-05  4061   0.257E-02
  36 F= -.34177836E+03 E0= -.34177101E+03  d E =-.427686E-02
 curvature:  -0.67 expect dE=-0.133E-01 dE for cont linesearch -0.246E-04
 trial: gam= 0.49039 g(F)=  0.197E-01 g(S)=  0.000E+00 ort = 0.228E-02 (trialstep = 0.172E+00)
 search vector abs. value=  0.561E-01
 bond charge predicted
       N       E                     dE             d eps       ncg     rms          rms(c)
DAV:   1    -0.341779577658E+03   -0.12252E-02   -0.82110E-01  7488   0.211E+00    0.403E-01
RMM:   2    -0.341978293024E+03   -0.19872E+00   -0.36351E-02  7757   0.414E-01    0.747E+00
RMM:   3    -0.341794377050E+03    0.18392E+00   -0.15479E-02  7676   0.261E-01    0.150E+00
RMM:   4    -0.341781907099E+03    0.12470E-01   -0.28229E-03  7010   0.159E-01    0.424E-01
RMM:   5    -0.341781661821E+03    0.24528E-03   -0.79161E-04  6178   0.591E-02    0.542E-01
RMM:   6    -0.341781117803E+03    0.54402E-03   -0.15843E-04  4299   0.333E-02    0.332E-01
RMM:   7    -0.341781282149E+03   -0.16435E-03   -0.14208E-04  4134   0.323E-02    0.400E-01
RMM:   8    -0.341780992156E+03    0.28999E-03   -0.85183E-05  3996   0.265E-02    0.243E-01
RMM:   9    -0.341780898532E+03    0.93624E-04   -0.97642E-05  3988   0.258E-02
  37 F= -.34178090E+03 E0= -.34177362E+03  d E =-.253515E-02
 trial-energy change:   -0.002535  1 .order   -0.002643   -0.003576   -0.001710
 step:   0.3299(harm=  0.3299)  dis= 0.00697  next Energy=  -341.781791 (dE=-0.343E-02)
 bond charge predicted
       N       E                     dE             d eps       ncg     rms          rms(c)
DAV:   1    -0.341780368602E+03    0.62355E-03   -0.68725E-01  7488   0.193E+00    0.199E-01
RMM:   2    -0.341785223649E+03   -0.48550E-02   -0.16942E-02  7398   0.324E-01    0.958E-01
RMM:   3    -0.341781997893E+03    0.32258E-02   -0.14618E-03  6801   0.990E-02    0.302E-01
RMM:   4    -0.341783105046E+03   -0.11072E-02   -0.30712E-04  4895   0.389E-02    0.620E-01
RMM:   5    -0.341782275670E+03    0.82938E-03   -0.33471E-04  4967   0.434E-02    0.499E-01
RMM:   6    -0.341782119170E+03    0.15650E-03   -0.10327E-04  4045   0.348E-02    0.397E-01
RMM:   7    -0.341781679255E+03    0.43991E-03   -0.97505E-05  4053   0.270E-02    0.175E-01
RMM:   8    -0.341781718893E+03   -0.39637E-04   -0.10661E-04  4018   0.272E-02
  38 F= -.34178172E+03 E0= -.34177455E+03  d E =-.335551E-02
 curvature:  -0.45 expect dE=-0.733E-02 dE for cont linesearch -0.663E-06
 trial: gam= 0.92117 g(F)=  0.164E-01 g(S)=  0.000E+00 ort = 0.289E-03 (trialstep = 0.177E+00)
 search vector abs. value=  0.646E-01
 bond charge predicted
       N       E                     dE             d eps       ncg     rms          rms(c)
DAV:   1    -0.341781729508E+03   -0.50253E-04   -0.10154E+00  7488   0.241E+00    0.341E-01
RMM:   2    -0.341803610863E+03   -0.21881E-01   -0.31512E-02  7478   0.411E-01    0.324E+00
RMM:   3    -0.341790625989E+03    0.12985E-01   -0.34659E-03  7256   0.144E-01    0.145E+00
RMM:   4    -0.341787527954E+03    0.30980E-02   -0.11865E-03  6760   0.786E-02    0.129E+00
RMM:   5    -0.341786104013E+03    0.14239E-02   -0.37499E-04  5164   0.577E-02    0.974E-01
RMM:   6    -0.341784183581E+03    0.19204E-02   -0.26245E-04  4697   0.415E-02    0.621E-01
RMM:   7    -0.341783984460E+03    0.19912E-03   -0.16115E-04  4235   0.353E-02    0.533E-01
RMM:   8    -0.341783647068E+03    0.33739E-03   -0.14893E-04  4095   0.331E-02    0.308E-01
RMM:   9    -0.341783561532E+03    0.85536E-04   -0.87643E-05  4007   0.276E-02
  39 F= -.34178356E+03 E0= -.34177619E+03  d E =-.184264E-02
 trial-energy change:   -0.001843  1 .order   -0.001983   -0.002957   -0.001010
 step:   0.2686(harm=  0.2686)  dis= 0.00629  next Energy=  -341.783964 (dE=-0.225E-02)
 bond charge predicted
       N       E                     dE             d eps       ncg     rms          rms(c)
DAV:   1    -0.341783402542E+03    0.24453E-03   -0.27397E-01  7504   0.125E+00    0.175E-01
RMM:   2    -0.341806739675E+03   -0.23337E-01   -0.82179E-03  7540   0.210E-01    0.272E+00
RMM:   3    -0.341787451480E+03    0.19288E-01   -0.23108E-03  7170   0.108E-01    0.110E+00
RMM:   4    -0.341785766941E+03    0.16845E-02   -0.32488E-04  4947   0.693E-02    0.749E-01
RMM:   5    -0.341784261139E+03    0.15058E-02   -0.17897E-04  4215   0.375E-02    0.466E-01
RMM:   6    -0.341784238735E+03    0.22404E-04   -0.59085E-05  3943   0.257E-02
  40 F= -.34178424E+03 E0= -.34177689E+03  d E =-.251984E-02
 curvature:  -0.52 expect dE=-0.101E-01 dE for cont linesearch -0.210E-05
 trial: gam= 1.06528 g(F)=  0.194E-01 g(S)=  0.000E+00 ort = 0.512E-03 (trialstep = 0.134E+00)
 search vector abs. value=  0.938E-01
 bond charge predicted
       N       E                     dE             d eps       ncg     rms          rms(c)
DAV:   1    -0.341784494406E+03   -0.23327E-03   -0.87862E-01  7488   0.231E+00    0.490E-01
RMM:   2    -0.341811549523E+03   -0.27055E-01   -0.30390E-02  7553   0.418E-01    0.343E+00
RMM:   3    -0.341792244387E+03    0.19305E-01   -0.67582E-03  7417   0.176E-01    0.133E+00
RMM:   4    -0.341796330134E+03   -0.40857E-02   -0.24772E-03  7333   0.100E-01    0.186E+00
RMM:   5    -0.341788166581E+03    0.81636E-02   -0.57372E-04  5919   0.758E-02    0.827E-01
RMM:   6    -0.341786593779E+03    0.15728E-02   -0.23387E-04  4537   0.397E-02    0.509E-01
RMM:   7    -0.341786031299E+03    0.56248E-03   -0.17600E-04  4290   0.336E-02    0.274E-01
RMM:   8    -0.341786228846E+03   -0.19755E-03   -0.91129E-05  4013   0.311E-02    0.317E-01
RMM:   9    -0.341785948330E+03    0.28052E-03   -0.74206E-05  3990   0.220E-02    0.183E-01
RMM:  10    -0.341785929108E+03    0.19222E-04   -0.43263E-05  3845   0.207E-02
  41 F= -.34178593E+03 E0= -.34177849E+03  d E =-.169037E-02
 trial-energy change:   -0.001690  1 .order   -0.002093   -0.002682   -0.001504
 step:   0.3061(harm=  0.3061)  dis= 0.00821  next Energy=  -341.787291 (dE=-0.305E-02)
 bond charge predicted
       N       E                     dE             d eps       ncg     rms          rms(c)
DAV:   1    -0.341783948573E+03    0.19998E-02   -0.14320E+00  7488   0.295E+00    0.239E-01
RMM:   2    -0.341829546044E+03   -0.45597E-01   -0.34577E-02  7496   0.479E-01    0.344E+00
RMM:   3    -0.341790540684E+03    0.39005E-01   -0.43782E-03  7595   0.172E-01    0.125E+00
RMM:   4    -0.341788439591E+03    0.21011E-02   -0.92744E-04  6364   0.910E-02    0.651E-01
RMM:   5    -0.341787178198E+03    0.12614E-02   -0.26774E-04  4709   0.419E-02    0.368E-01
RMM:   6    -0.341787066851E+03    0.11135E-03   -0.11980E-04  4095   0.351E-02    0.333E-01
RMM:   7    -0.341787508301E+03   -0.44145E-03   -0.14866E-04  4144   0.305E-02    0.345E-01
RMM:   8    -0.341787022699E+03    0.48560E-03   -0.13365E-04  4133   0.339E-02    0.287E-01
RMM:   9    -0.341786929949E+03    0.92751E-04   -0.82205E-05  4030   0.263E-02
  42 F= -.34178693E+03 E0= -.34177934E+03  d E =-.269121E-02
 curvature:  -0.72 expect dE=-0.610E-02 dE for cont linesearch -0.119E-04
 trial: gam= 0.55858 g(F)=  0.848E-02 g(S)=  0.000E+00 ort = 0.125E-02 (trialstep = 0.169E+00)
 search vector abs. value=  0.391E-01
 bond charge predicted
       N       E                     dE             d eps       ncg     rms          rms(c)
DAV:   1    -0.341786949451E+03    0.73248E-04   -0.56650E-01  7488   0.182E+00    0.347E-01
RMM:   2    -0.341951313057E+03   -0.16436E+00   -0.27974E-02  7788   0.353E-01    0.696E+00
RMM:   3    -0.341796421631E+03    0.15489E+00   -0.11378E-02  7650   0.231E-01    0.137E+00
RMM:   4    -0.341789218743E+03    0.72029E-02   -0.20650E-03  6851   0.138E-01    0.814E-01
RMM:   5    -0.341792592226E+03   -0.33735E-02   -0.39541E-04  5302   0.457E-02    0.124E+00
RMM:   6    -0.341790126064E+03    0.24662E-02   -0.18522E-04  4333   0.373E-02    0.102E+00
RMM:   7    -0.341789359694E+03    0.76637E-03   -0.11133E-04  4034   0.302E-02    0.842E-01
RMM:   8    -0.341788057590E+03    0.13021E-02   -0.20033E-04  4474   0.327E-02    0.387E-01
RMM:   9    -0.341787768924E+03    0.28867E-03   -0.19114E-04  4367   0.368E-02    0.838E-02
RMM:  10    -0.341787818778E+03   -0.49854E-04   -0.68069E-05  4008   0.270E-02
  43 F= -.34178782E+03 E0= -.34178031E+03  d E =-.888829E-03
 trial-energy change:   -0.000889  1 .order   -0.001024   -0.001549   -0.000498
 step:   0.2488(harm=  0.2488)  dis= 0.00377  next Energy=  -341.788072 (dE=-0.114E-02)
 bond charge predicted
       N       E                     dE             d eps       ncg     rms          rms(c)
DAV:   1    -0.341787720424E+03    0.48500E-04   -0.12725E-01  7504   0.862E-01    0.111E-01
RMM:   2    -0.341792168309E+03   -0.44479E-02   -0.35743E-03  7406   0.147E-01    0.105E+00
RMM:   3    -0.341791494518E+03    0.67379E-03   -0.75335E-04  6263   0.612E-02    0.117E+00
RMM:   4    -0.341788597089E+03    0.28974E-02   -0.16161E-04  4210   0.471E-02    0.511E-01
RMM:   5    -0.341788352759E+03    0.24433E-03   -0.59338E-05  3898   0.241E-02    0.470E-01
RMM:   6    -0.341788767695E+03   -0.41494E-03   -0.19008E-05  3634   0.145E-02    0.579E-01
RMM:   7    -0.341788141953E+03    0.62574E-03   -0.37563E-05  3747   0.144E-02    0.356E-01
RMM:   8    -0.341788144229E+03   -0.22768E-05   -0.27071E-05  3547   0.155E-02
  44 F= -.34178814E+03 E0= -.34178075E+03  d E =-.121428E-02
 curvature:  -0.53 expect dE=-0.514E-02 dE for cont linesearch -0.262E-05
 trial: gam= 1.20392 g(F)=  0.969E-02 g(S)=  0.000E+00 ort =-0.440E-03 (trialstep = 0.111E+00)
 search vector abs. value=  0.654E-01
 bond charge predicted
       N       E                     dE             d eps       ncg     rms          rms(c)
DAV:   1    -0.341788009488E+03    0.13246E-03   -0.40019E-01  7488   0.151E+00    0.223E-01
RMM:   2    -0.341882316569E+03   -0.94307E-01   -0.17233E-02  7766   0.281E-01    0.558E+00
RMM:   3    -0.341790339436E+03    0.91977E-01   -0.54971E-03  7454   0.180E-01    0.456E-01
RMM:   4    -0.341788733895E+03    0.16055E-02   -0.99482E-04  6257   0.104E-01    0.231E-01
RMM:   5    -0.341788903690E+03   -0.16979E-03   -0.27578E-04  4717   0.392E-02    0.219E-01
RMM:   6    -0.341788981813E+03   -0.78124E-04   -0.10932E-04  4031   0.306E-02
  45 F= -.34178898E+03 E0= -.34178145E+03  d E =-.837584E-03
 trial-energy change:   -0.000838  1 .order   -0.000867   -0.001014   -0.000721
 step:   0.3825(harm=  0.3825)  dis= 0.00759  next Energy=  -341.789897 (dE=-0.175E-02)
 bond charge predicted
       N       E                     dE             d eps       ncg     rms          rms(c)
DAV:   1    -0.341784576066E+03    0.43276E-02   -0.24185E+00  7488   0.372E+00    0.309E-01
RMM:   2    -0.341803301861E+03   -0.18726E-01   -0.54163E-02  7453   0.585E-01    0.194E+00
RMM:   3    -0.341804897139E+03   -0.15953E-02   -0.53301E-03  7808   0.184E-01    0.238E+00
RMM:   4    -0.341791372868E+03    0.13524E-01   -0.10574E-03  6429   0.936E-02    0.757E-01
RMM:   5    -0.341789638129E+03    0.17347E-02   -0.84045E-04  6474   0.592E-02    0.293E-01
RMM:   6    -0.341789442017E+03    0.19611E-03   -0.23135E-04  4531   0.439E-02    0.193E-01
RMM:   7    -0.341789615192E+03   -0.17318E-03   -0.33765E-04  4827   0.408E-02    0.305E-01
RMM:   8    -0.341791871832E+03   -0.22566E-02   -0.48598E-04  5577   0.472E-02    0.820E-01
RMM:   9    -0.341789470144E+03    0.24017E-02   -0.25486E-04  4553   0.416E-02    0.233E-01
RMM:  10    -0.341789249387E+03    0.22076E-03   -0.73137E-05  3956   0.274E-02    0.506E-02
RMM:  11    -0.341789294073E+03   -0.44686E-04   -0.27228E-05  3873   0.179E-02
  46 F= -.34178929E+03 E0= -.34178167E+03  d E =-.114984E-02
 curvature:  -1.36 expect dE=-0.128E-01 dE for cont linesearch -0.464E-04
 trial: gam= 0.81766 g(F)=  0.937E-02 g(S)=  0.000E+00 ort =-0.149E-02 (trialstep = 0.165E+00)
 search vector abs. value=  0.506E-01
 bond charge predicted
       N       E                     dE             d eps       ncg     rms          rms(c)
DAV:   1    -0.341788873640E+03    0.37575E-03   -0.70216E-01  7488   0.203E+00    0.212E-01
RMM:   2    -0.341795966932E+03   -0.70933E-02   -0.17834E-02  7382   0.334E-01    0.173E+00
RMM:   3    -0.341791535984E+03    0.44309E-02   -0.14847E-03  6776   0.103E-01    0.656E-01
RMM:   4    -0.341791782771E+03   -0.24679E-03   -0.38479E-04  5125   0.458E-02    0.744E-01
RMM:   5    -0.341790623593E+03    0.11592E-02   -0.19328E-04  4341   0.429E-02    0.490E-01
RMM:   6    -0.341791003058E+03   -0.37946E-03   -0.83746E-05  4011   0.283E-02    0.544E-01
RMM:   7    -0.341790545132E+03    0.45793E-03   -0.71881E-05  3968   0.236E-02    0.412E-01
RMM:   8    -0.341790399068E+03    0.14606E-03   -0.82015E-05  3969   0.242E-02    0.265E-01
RMM:   9    -0.341790270477E+03    0.12859E-03   -0.76423E-05  3953   0.233E-02    0.118E-01
RMM:  10    -0.341790254487E+03    0.15990E-04   -0.39224E-05  3700   0.187E-02
  47 F= -.34179025E+03 E0= -.34178258E+03  d E =-.960414E-03
 trial-energy change:   -0.000960  1 .order   -0.000959   -0.001345   -0.000573
 step:   0.2876(harm=  0.2876)  dis= 0.00547  next Energy=  -341.790466 (dE=-0.117E-02)
 bond charge predicted
       N       E                     dE             d eps       ncg     rms          rms(c)
DAV:   1    -0.341789682857E+03    0.58762E-03   -0.38736E-01  7488   0.150E+00    0.153E-01
RMM:   2    -0.341793133558E+03   -0.34507E-02   -0.96911E-03  7332   0.247E-01    0.119E+00
RMM:   3    -0.341790544037E+03    0.25895E-02   -0.71688E-04  5738   0.745E-02    0.192E-01
RMM:   4    -0.341791198433E+03   -0.65440E-03   -0.14140E-04  4185   0.324E-02    0.560E-01
RMM:   5    -0.341790594182E+03    0.60425E-03   -0.50029E-05  3963   0.249E-02    0.333E-01
RMM:   6    -0.341790674050E+03   -0.79868E-04   -0.50360E-05  3918   0.180E-02
  48 F= -.34179067E+03 E0= -.34178307E+03  d E =-.137998E-02
 curvature:  -0.89 expect dE=-0.724E-02 dE for cont linesearch -0.266E-04
 trial: gam= 0.89884 g(F)=  0.810E-02 g(S)=  0.000E+00 ort =-0.123E-02 (trialstep = 0.190E+00)
 search vector abs. value=  0.468E-01
 bond charge predicted
       N       E                     dE             d eps       ncg     rms          rms(c)
DAV:   1    -0.341789669911E+03    0.92427E-03   -0.85879E-01  7488   0.224E+00    0.465E-01
RMM:   2    -0.341840088825E+03   -0.50419E-01   -0.33447E-02  7584   0.420E-01    0.448E+00
RMM:   3    -0.341840223327E+03   -0.13450E-03   -0.10437E-02  7647   0.207E-01    0.393E+00
RMM:   4    -0.341791610298E+03    0.48613E-01   -0.34927E-03  7071   0.157E-01    0.187E-01
RMM:   5    -0.341791455990E+03    0.15431E-03   -0.64579E-04  5774   0.702E-02    0.418E-01
RMM:   6    -0.341791391275E+03    0.64715E-04   -0.13108E-04  4170   0.323E-02
  49 F= -.34179139E+03 E0= -.34178391E+03  d E =-.717225E-03
 trial-energy change:   -0.000717  1 .order   -0.000723   -0.001326   -0.000120
 step:   0.2084(harm=  0.2084)  dis= 0.00419  next Energy=  -341.791403 (dE=-0.729E-03)
 bond charge predicted
       N       E                     dE             d eps       ncg     rms          rms(c)
DAV:   1    -0.341792622661E+03   -0.11667E-02   -0.10261E-02  7760   0.265E-01    0.703E-01
RMM:   2    -0.343029677246E+03   -0.12371E+01   -0.10826E-01  8032   0.489E-01    0.177E+01
RMM:   3    -0.341818964071E+03    0.12107E+01   -0.66870E-02  7658   0.522E-01    0.115E+00
RMM:   4    -0.341793355280E+03    0.25609E-01   -0.12646E-02  7857   0.297E-01    0.913E-01
RMM:   5    -0.341793088834E+03    0.26645E-03   -0.31673E-03  7880   0.114E-01    0.813E-01
RMM:   6    -0.341792996866E+03    0.91967E-04   -0.78795E-04  6167   0.616E-02
  50 F= -.34179300E+03 E0= -.34178503E+03  d E =-.232282E-02
 curvature:  -0.70 expect dE=-0.462E-02 dE for cont linesearch -0.733E-06
 trial: gam= 0.73648 g(F)=  0.662E-02 g(S)=  0.000E+00 ort =-0.222E-03 (trialstep = 0.193E+00)
 search vector abs. value=  0.317E-01
 bond charge predicted
       N       E                     dE             d eps       ncg     rms          rms(c)
DAV:   1    -0.341790781165E+03    0.23077E-02   -0.58951E-01  7488   0.181E+00    0.314E-01
RMM:   2    -0.342052640195E+03   -0.26186E+00   -0.36136E-02  7868   0.387E-01    0.898E+00
RMM:   3    -0.341798351537E+03    0.25429E+00   -0.11147E-02  7581   0.264E-01    0.922E-01
RMM:   4    -0.341792469738E+03    0.58818E-02   -0.27846E-03  7302   0.145E-01    0.919E-01
RMM:   5    -0.341793529045E+03   -0.10593E-02   -0.43093E-04  5400   0.574E-02    0.887E-01
RMM:   6    -0.341792261849E+03    0.12672E-02   -0.29028E-04  4823   0.425E-02    0.644E-01
RMM:   7    -0.341794550384E+03   -0.22885E-02   -0.15160E-04  4133   0.333E-02    0.106E+00
RMM:   8    -0.341793420872E+03    0.11295E-02   -0.10020E-04  4030   0.303E-02    0.853E-01
RMM:   9    -0.341792353267E+03    0.10676E-02   -0.12026E-04  4083   0.295E-02    0.560E-01
RMM:  10    -0.341791816733E+03    0.53653E-03   -0.67633E-05  4034   0.248E-02    0.347E-01
RMM:  11    -0.341791738633E+03    0.78100E-04   -0.36040E-05  3705   0.174E-02
  51 F= -.34179174E+03 E0= -.34178367E+03  d E =0.125823E-02
 trial-energy change:    0.001258  1 .order   -0.000615   -0.001249    0.000019
 step:   0.1904(harm=  0.1904)  dis= 0.00303  next Energy=  -341.793612 (dE=-0.615E-03)
 bond charge predicted
       N       E                     dE             d eps       ncg     rms          rms(c)
DAV:   1    -0.341791747778E+03    0.68955E-04   -0.15353E-04  5864   0.304E-02    0.277E-01
RMM:   2    -0.341884613863E+03   -0.92866E-01   -0.86014E-03  7765   0.140E-01    0.543E+00
RMM:   3    -0.341801170035E+03    0.83444E-01   -0.86461E-03  7501   0.180E-01    0.149E+00
RMM:   4    -0.341792242987E+03    0.89270E-02   -0.13723E-03  6611   0.120E-01    0.346E-01
RMM:   5    -0.341791823807E+03    0.41918E-03   -0.23446E-04  4553   0.383E-02    0.250E-01
RMM:   6    -0.341791679193E+03    0.14461E-03   -0.10247E-04  3933   0.290E-02    0.127E-01
RMM:   7    -0.341791645558E+03    0.33636E-04   -0.29467E-05  3585   0.177E-02
  52 F= -.34179165E+03 E0= -.34178378E+03  d E =0.135131E-02
 curvature:  -0.47 expect dE=-0.245E-02 dE for cont linesearch -0.672E-05
 trial: gam= 0.66577 g(F)=  0.525E-02 g(S)=  0.000E+00 ort = 0.675E-03 (trialstep = 0.193E+00)
 search vector abs. value=  0.202E-01
 bond charge predicted
       N       E                     dE             d eps       ncg     rms          rms(c)
DAV:   1    -0.341791715047E+03   -0.35854E-04   -0.36715E-01  7488   0.142E+00    0.223E-01
RMM:   2    -0.341852789758E+03   -0.61075E-01   -0.14297E-02  7641   0.272E-01    0.441E+00
RMM:   3    -0.341795576575E+03    0.57213E-01   -0.39285E-03  7301   0.149E-01    0.111E+00
RMM:   4    -0.341793216714E+03    0.23599E-02   -0.83233E-04  5968   0.883E-02    0.617E-01
RMM:   5    -0.341795289369E+03   -0.20727E-02   -0.30097E-04  4817   0.406E-02    0.881E-01
RMM:   6    -0.341792706391E+03    0.25830E-02   -0.13731E-04  4032   0.340E-02    0.431E-01
RMM:   7    -0.341792472628E+03    0.23376E-03   -0.13012E-04  4102   0.291E-02    0.265E-01
RMM:   8    -0.341792342760E+03    0.12987E-03   -0.11347E-04  4013   0.289E-02    0.127E-01
RMM:   9    -0.341792328047E+03    0.14713E-04   -0.65682E-05  3934   0.251E-02
  53 F= -.34179233E+03 E0= -.34178443E+03  d E =-.682490E-03
 trial-energy change:   -0.000682  1 .order   -0.000749   -0.001099   -0.000400
 step:   0.3029(harm=  0.3029)  dis= 0.00377  next Energy=  -341.792509 (dE=-0.863E-03)
 bond charge predicted
       N       E                     dE             d eps       ncg     rms          rms(c)
DAV:   1    -0.341792182087E+03    0.16067E-03   -0.11951E-01  7488   0.808E-01    0.107E-01
RMM:   2    -0.341796455626E+03   -0.42735E-02   -0.35384E-03  7347   0.145E-01    0.116E+00
RMM:   3    -0.341794499570E+03    0.19561E-02   -0.57435E-04  5874   0.574E-02    0.899E-01
RMM:   4    -0.341792611171E+03    0.18884E-02   -0.13051E-04  4088   0.427E-02    0.306E-01
RMM:   5    -0.341792421929E+03    0.18924E-03   -0.77049E-05  3982   0.240E-02    0.146E-01
RMM:   6    -0.341792610105E+03   -0.18818E-03   -0.46366E-05  3824   0.211E-02    0.256E-01
RMM:   7    -0.341792449994E+03    0.16011E-03   -0.19693E-05  3351   0.132E-02    0.170E-01
RMM:   8    -0.341792550020E+03   -0.10003E-03   -0.19282E-05  3537   0.118E-02    0.238E-01
RMM:   9    -0.341792409478E+03    0.14054E-03   -0.17899E-05  3306   0.120E-02    0.907E-02
RMM:  10    -0.341792403301E+03    0.61769E-05   -0.86556E-06  2871   0.935E-03
  54 F= -.34179240E+03 E0= -.34178454E+03  d E =-.757744E-03
 curvature:  -0.54 expect dE=-0.169E-02 dE for cont linesearch -0.104E-05
 trial: gam= 0.71226 g(F)=  0.315E-02 g(S)=  0.000E+00 ort =-0.198E-03 (trialstep = 0.215E+00)
 search vector abs. value=  0.131E-01
 bond charge predicted
       N       E                     dE             d eps       ncg     rms          rms(c)
DAV:   1    -0.341792279615E+03    0.12986E-03   -0.30479E-01  7488   0.131E+00    0.927E-02
RMM:   2    -0.341794121490E+03   -0.18419E-02   -0.68678E-03  7306   0.209E-01    0.625E-01
RMM:   3    -0.341793500148E+03    0.62134E-03   -0.45396E-04  5209   0.618E-02    0.455E-01
RMM:   4    -0.341793042258E+03    0.45789E-03   -0.16519E-04  4278   0.384E-02    0.276E-01
RMM:   5    -0.341792924056E+03    0.11820E-03   -0.47905E-05  3852   0.226E-02    0.932E-02
RMM:   6    -0.341792960336E+03   -0.36279E-04   -0.36370E-05  3806   0.172E-02
  55 F= -.34179296E+03 E0= -.34178506E+03  d E =-.557034E-03
 trial-energy change:   -0.000557  1 .order   -0.000530   -0.000645   -0.000415
 step:   0.6025(harm=  0.6025)  dis= 0.00570  next Energy=  -341.793309 (dE=-0.905E-03)
 bond charge predicted
       N       E                     dE             d eps       ncg     rms          rms(c)
DAV:   1    -0.341791122899E+03    0.18012E-02   -0.99180E-01  7488   0.235E+00    0.192E-01
RMM:   2    -0.341800892753E+03   -0.97699E-02   -0.22488E-02  7457   0.381E-01    0.137E+00
RMM:   3    -0.341796960098E+03    0.39327E-02   -0.21626E-03  7747   0.116E-01    0.121E+00
RMM:   4    -0.341793332204E+03    0.36279E-02   -0.73767E-04  5874   0.671E-02    0.300E-01
RMM:   5    -0.341793458008E+03   -0.12580E-03   -0.19366E-04  4371   0.385E-02    0.305E-01
RMM:   6    -0.341793678830E+03   -0.22082E-03   -0.12763E-04  4092   0.343E-02    0.439E-01
RMM:   7    -0.341794618551E+03   -0.93972E-03   -0.19139E-04  4374   0.324E-02    0.557E-01
RMM:   8    -0.341793143362E+03    0.14752E-02   -0.13120E-04  4018   0.336E-02    0.193E-01
RMM:   9    -0.341793123871E+03    0.19491E-04   -0.75476E-05  3961   0.252E-02
  56 F= -.34179312E+03 E0= -.34178532E+03  d E =-.720570E-03
 curvature:  -1.31 expect dE=-0.416E-02 dE for cont linesearch -0.147E-04
 trial: gam= 0.88354 g(F)=  0.316E-02 g(S)=  0.000E+00 ort =-0.383E-03 (trialstep = 0.292E+00)
 search vector abs. value=  0.127E-01
 bond charge predicted
       N       E                     dE             d eps       ncg     rms          rms(c)
DAV:   1    -0.341792443328E+03    0.70003E-03   -0.54649E-01  7488   0.172E+00    0.191E-01
RMM:   2    -0.341830433065E+03   -0.37990E-01   -0.16257E-02  7515   0.294E-01    0.382E+00
RMM:   3    -0.341794759801E+03    0.35673E-01   -0.23545E-03  7169   0.134E-01    0.557E-01
RMM:   4    -0.341797729851E+03   -0.29700E-02   -0.73405E-04  6062   0.740E-02    0.125E+00
RMM:   5    -0.341796625379E+03    0.11045E-02   -0.19640E-04  4451   0.353E-02    0.101E+00
RMM:   6    -0.341794247108E+03    0.23783E-02   -0.15176E-04  4189   0.323E-02    0.664E-01
RMM:   7    -0.341794282326E+03   -0.35218E-04   -0.84987E-05  3983   0.261E-02
  57 F= -.34179428E+03 E0= -.34178628E+03  d E =-.115845E-02
 trial-energy change:   -0.001158  1 .order   -0.000265   -0.000826    0.000295
 step:   0.2784(harm=  0.2153)  dis= 0.00230  next Energy=  -341.794289 (dE=-0.117E-02)
 bond charge predicted
       N       E                     dE             d eps       ncg     rms          rms(c)
DAV:   1    -0.341793897985E+03    0.34912E-03   -0.18062E-03  7848   0.120E-01    0.449E-01
RMM:   2    -0.342168536188E+03   -0.37464E+00   -0.33648E-02  8015   0.270E-01    0.972E+00
RMM:   3    -0.341809422462E+03    0.35911E+00   -0.27644E-02  7737   0.316E-01    0.159E+00
RMM:   4    -0.341794330910E+03    0.15092E-01   -0.38379E-03  7213   0.185E-01    0.321E-01
RMM:   5    -0.341793576348E+03    0.75456E-03   -0.50746E-04  5668   0.565E-02    0.136E-01
RMM:   6    -0.341793534780E+03    0.41568E-04   -0.10723E-04  3995   0.306E-02
  58 F= -.34179353E+03 E0= -.34178574E+03  d E =-.410908E-03
 curvature:  -0.16 expect dE=-0.424E-03 dE for cont linesearch -0.552E-07
 trial: gam= 0.59590 g(F)=  0.267E-02 g(S)=  0.000E+00 ort = 0.665E-04 (trialstep = 0.290E+00)
 search vector abs. value=  0.727E-02
 bond charge predicted
       N       E                     dE             d eps       ncg     rms          rms(c)
DAV:   1    -0.341793296586E+03    0.27976E-03   -0.30444E-01  7488   0.127E+00    0.186E-01
RMM:   2    -0.341844200501E+03   -0.50904E-01   -0.11702E-02  7635   0.241E-01    0.404E+00
RMM:   3    -0.341795173384E+03    0.49027E-01   -0.27816E-03  7216   0.130E-01    0.770E-01
RMM:   4    -0.341794699638E+03    0.47375E-03   -0.50936E-04  5388   0.741E-02    0.652E-01
RMM:   5    -0.341796893448E+03   -0.21938E-02   -0.11623E-04  4045   0.314E-02    0.997E-01
RMM:   6    -0.341794968761E+03    0.19247E-02   -0.10047E-04  3986   0.294E-02    0.752E-01
RMM:   7    -0.341794457068E+03    0.51169E-03   -0.84553E-05  3943   0.247E-02    0.538E-01
RMM:   8    -0.341793795832E+03    0.66124E-03   -0.17336E-04  4349   0.316E-02    0.139E-01
RMM:   9    -0.341793816844E+03   -0.21013E-04   -0.76942E-05  3997   0.260E-02
  59 F= -.34179382E+03 E0= -.34178590E+03  d E =-.282065E-03
 trial-energy change:   -0.000282  1 .order   -0.000400   -0.000785   -0.000014
 step:   0.2949(harm=  0.2949)  dis= 0.00155  next Energy=  -341.793934 (dE=-0.400E-03)
 bond charge predicted
       N       E                     dE             d eps       ncg     rms          rms(c)
DAV:   1    -0.341793826416E+03   -0.30585E-04   -0.14591E-04  5712   0.379E-02    0.433E-02
RMM:   2    -0.341797342291E+03   -0.35159E-02   -0.38893E-04  5081   0.345E-02    0.109E+00
RMM:   3    -0.341793787909E+03    0.35544E-02   -0.17902E-04  4176   0.404E-02    0.111E-01
RMM:   4    -0.341793817272E+03   -0.29363E-04   -0.63860E-05  3775   0.286E-02
  60 F= -.34179382E+03 E0= -.34178596E+03  d E =-.282492E-03
 curvature:  -0.40 expect dE=-0.100E-02 dE for cont linesearch -0.518E-06
 trial: gam= 0.96611 g(F)=  0.254E-02 g(S)=  0.000E+00 ort =-0.976E-04 (trialstep = 0.231E+00)
 search vector abs. value=  0.913E-02
 bond charge predicted
       N       E                     dE             d eps       ncg     rms          rms(c)
DAV:   1    -0.341793760652E+03    0.27257E-04   -0.24968E-01  7488   0.118E+00    0.129E-01
RMM:   2    -0.341807991936E+03   -0.14231E-01   -0.70625E-03  7480   0.203E-01    0.208E+00
RMM:   3    -0.341795241511E+03    0.12750E-01   -0.10591E-03  6680   0.852E-02    0.712E-01
RMM:   4    -0.341794401730E+03    0.83978E-03   -0.31641E-04  4737   0.535E-02    0.234E-01
RMM:   5    -0.341794288996E+03    0.11273E-03   -0.72678E-05  3929   0.268E-02    0.209E-01
RMM:   6    -0.341794379825E+03   -0.90829E-04   -0.47180E-05  3906   0.215E-02
  61 F= -.34179438E+03 E0= -.34178655E+03  d E =-.562553E-03
 trial-energy change:   -0.000563  1 .order   -0.000391   -0.000565   -0.000217
 step:   0.3754(harm=  0.3754)  dis= 0.00207  next Energy=  -341.794276 (dE=-0.458E-03)
 bond charge predicted
       N       E                     dE             d eps       ncg     rms          rms(c)
DAV:   1    -0.341794184916E+03    0.10408E-03   -0.96173E-02  7488   0.732E-01    0.134E-01
RMM:   2    -0.341807229197E+03   -0.13044E-01   -0.37227E-03  7692   0.138E-01    0.178E+00
RMM:   3    -0.341795373130E+03    0.11856E-01   -0.80944E-04  6368   0.697E-02    0.664E-01
RMM:   4    -0.341794438570E+03    0.93456E-03   -0.53875E-04  5488   0.595E-02    0.214E-01
RMM:   5    -0.341794391921E+03    0.46649E-04   -0.10689E-04  4047   0.301E-02
  62 F= -.34179439E+03 E0= -.34178647E+03  d E =-.574648E-03
 curvature:  -0.70 expect dE=-0.148E-02 dE for cont linesearch -0.705E-05
 trial: gam= 0.64651 g(F)=  0.211E-02 g(S)=  0.000E+00 ort = 0.303E-03 (trialstep = 0.260E+00)
 search vector abs. value=  0.631E-02
 bond charge predicted
       N       E                     dE             d eps       ncg     rms          rms(c)
DAV:   1    -0.341794397515E+03    0.41054E-04   -0.21523E-01  7488   0.108E+00    0.289E-01
RMM:   2    -0.341855856201E+03   -0.61459E-01   -0.13359E-02  7714   0.236E-01    0.500E+00
RMM:   3    -0.341804703665E+03    0.51153E-01   -0.58903E-03  7384   0.166E-01    0.157E+00
RMM:   4    -0.341797029367E+03    0.76743E-02   -0.18694E-03  6874   0.123E-01    0.939E-01
RMM:   5    -0.341797909630E+03   -0.88026E-03   -0.45686E-04  5392   0.484E-02    0.957E-01
RMM:   6    -0.341794841281E+03    0.30683E-02   -0.24306E-04  4533   0.380E-02    0.405E-01
RMM:   7    -0.341794753673E+03    0.87608E-04   -0.89081E-05  3976   0.280E-02
  63 F= -.34179475E+03 E0= -.34178661E+03  d E =-.361752E-03
 trial-energy change:   -0.000362  1 .order   -0.000269   -0.000599    0.000061
 step:   0.2360(harm=  0.2360)  dis= 0.00126  next Energy=  -341.794664 (dE=-0.272E-03)
 bond charge predicted
       N       E                     dE             d eps       ncg     rms          rms(c)
DAV:   1    -0.341794692687E+03    0.14859E-03   -0.21058E-03  7472   0.119E-01    0.248E-01
RMM:   2    -0.341870693214E+03   -0.76001E-01   -0.72886E-03  7705   0.131E-01    0.500E+00
RMM:   3    -0.341802330007E+03    0.68363E-01   -0.70348E-03  7351   0.164E-01    0.133E+00
RMM:   4    -0.341795014231E+03    0.73158E-02   -0.11982E-03  6585   0.111E-01    0.227E-01
RMM:   5    -0.341794705924E+03    0.30831E-03   -0.14946E-04  4092   0.333E-02    0.177E-01
RMM:   6    -0.341794655761E+03    0.50163E-04   -0.63245E-05  3759   0.249E-02
  64 F= -.34179466E+03 E0= -.34178659E+03  d E =-.263840E-03
 curvature:  -0.32 expect dE=-0.564E-03 dE for cont linesearch -0.867E-06
 trial: gam= 0.88946 g(F)=  0.174E-02 g(S)=  0.000E+00 ort = 0.130E-03 (trialstep = 0.231E+00)
 search vector abs. value=  0.697E-02
 bond charge predicted
       N       E                     dE             d eps       ncg     rms          rms(c)
DAV:   1    -0.341794551645E+03    0.15428E-03   -0.18893E-01  7488   0.102E+00    0.150E-01
RMM:   2    -0.341824660156E+03   -0.30109E-01   -0.69552E-03  7633   0.182E-01    0.320E+00
RMM:   3    -0.341795929715E+03    0.28730E-01   -0.20278E-03  7062   0.108E-01    0.581E-01
RMM:   4    -0.341795116672E+03    0.81304E-03   -0.38259E-04  4969   0.659E-02    0.342E-01
RMM:   5    -0.341796048599E+03   -0.93193E-03   -0.85163E-05  3986   0.283E-02    0.602E-01
RMM:   6    -0.341795196968E+03    0.85163E-03   -0.42994E-05  3781   0.208E-02    0.418E-01
RMM:   7    -0.341794951410E+03    0.24556E-03   -0.41230E-05  3588   0.160E-02    0.250E-01
RMM:   8    -0.341794908822E+03    0.42588E-04   -0.36259E-05  3762   0.183E-02
  65 F= -.34179491E+03 E0= -.34178692E+03  d E =-.253061E-03
 trial-energy change:   -0.000253  1 .order   -0.000273   -0.000430   -0.000116
 step:   0.3169(harm=  0.3169)  dis= 0.00157  next Energy=  -341.794950 (dE=-0.294E-03)
 bond charge predicted
       N       E                     dE             d eps       ncg     rms          rms(c)
DAV:   1    -0.341794860905E+03    0.90505E-04   -0.25613E-02  7520   0.375E-01    0.404E-02
RMM:   2    -0.341795141454E+03   -0.28055E-03   -0.58675E-04  5404   0.613E-02    0.242E-01
RMM:   3    -0.341795353441E+03   -0.21199E-03   -0.82550E-05  3920   0.293E-02    0.393E-01
RMM:   4    -0.341794976189E+03    0.37725E-03   -0.31387E-05  3778   0.205E-02    0.155E-01
RMM:   5    -0.341794918254E+03    0.57934E-04   -0.15638E-05  3493   0.114E-02
  66 F= -.34179492E+03 E0= -.34178690E+03  d E =-.262493E-03
 curvature:  -0.59 expect dE=-0.841E-03 dE for cont linesearch -0.337E-06
 trial: gam= 0.73829 g(F)=  0.142E-02 g(S)=  0.000E+00 ort = 0.629E-04 (trialstep = 0.248E+00)
 search vector abs. value=  0.531E-02
 bond charge predicted
       N       E                     dE             d eps       ncg     rms          rms(c)
DAV:   1    -0.341794856150E+03    0.12004E-03   -0.16471E-01  7488   0.937E-01    0.105E-01
RMM:   2    -0.341795922202E+03   -0.10661E-02   -0.38974E-03  7171   0.154E-01    0.599E-01
RMM:   3    -0.341795315350E+03    0.60685E-03   -0.27989E-04  4637   0.463E-02    0.199E-01
RMM:   4    -0.341797093801E+03   -0.17785E-02   -0.19879E-04  4401   0.326E-02    0.813E-01
RMM:   5    -0.341795744041E+03    0.13498E-02   -0.77465E-05  3964   0.334E-02    0.441E-01
RMM:   6    -0.341795219266E+03    0.52477E-03   -0.40632E-05  3751   0.186E-02    0.236E-01
RMM:   7    -0.341795341492E+03   -0.12223E-03   -0.33888E-05  3745   0.160E-02    0.233E-01
RMM:   8    -0.341795218354E+03    0.12314E-03   -0.36213E-05  3856   0.159E-02    0.136E-01
RMM:   9    -0.341795186917E+03    0.31437E-04   -0.18201E-05  3423   0.141E-02
  67 F= -.34179519E+03 E0= -.34178711E+03  d E =-.268663E-03
 trial-energy change:   -0.000269  1 .order   -0.000242   -0.000363   -0.000120
 step:   0.3710(harm=  0.3710)  dis= 0.00148  next Energy=  -341.795189 (dE=-0.271E-03)
 bond charge predicted
       N       E                     dE             d eps       ncg     rms          rms(c)
DAV:   1    -0.341795144905E+03    0.73449E-04   -0.39975E-02  7504   0.462E-01    0.845E-02
RMM:   2    -0.341807746110E+03   -0.12601E-01   -0.17842E-03  7392   0.908E-02    0.194E+00
RMM:   3    -0.341795383319E+03    0.12363E-01   -0.81299E-04  6339   0.670E-02    0.367E-01
RMM:   4    -0.341795651199E+03   -0.26788E-03   -0.18269E-04  4224   0.487E-02    0.348E-01
RMM:   5    -0.341795300337E+03    0.35086E-03   -0.45603E-05  3859   0.250E-02    0.199E-01
RMM:   6    -0.341795329983E+03   -0.29646E-04   -0.12164E-05  3272   0.108E-02
  68 F= -.34179533E+03 E0= -.34178725E+03  d E =-.411729E-03
 curvature:  -0.67 expect dE=-0.129E-02 dE for cont linesearch -0.558E-06
 trial: gam= 1.31545 g(F)=  0.192E-02 g(S)=  0.000E+00 ort =-0.663E-04 (trialstep = 0.133E+00)
 search vector abs. value=  0.109E-01
 bond charge predicted
       N       E                     dE             d eps       ncg     rms          rms(c)
DAV:   1    -0.341795199094E+03    0.10124E-03   -0.96860E-02  7488   0.716E-01    0.179E-01
RMM:   2    -0.341831503035E+03   -0.36304E-01   -0.60287E-03  7654   0.156E-01    0.370E+00
RMM:   3    -0.341798106008E+03    0.33397E-01   -0.29222E-03  7129   0.120E-01    0.848E-01
RMM:   4    -0.341795678025E+03    0.24280E-02   -0.66445E-04  5740   0.834E-02    0.375E-01
RMM:   5    -0.341796908990E+03   -0.12310E-02   -0.14910E-04  4152   0.312E-02    0.665E-01
RMM:   6    -0.341795759084E+03    0.11499E-02   -0.66617E-05  3855   0.257E-02    0.443E-01
RMM:   7    -0.341795482021E+03    0.27706E-03   -0.44146E-05  3581   0.164E-02    0.277E-01
RMM:   8    -0.341795348422E+03    0.13360E-03   -0.27132E-05  3564   0.157E-02    0.148E-01
RMM:   9    -0.341795362413E+03   -0.13992E-04   -0.15750E-05  3478   0.120E-02
  69 F= -.34179536E+03 E0= -.34178717E+03  d E =-.324306E-04
 trial-energy change:   -0.000032  1 .order   -0.000136   -0.000243   -0.000029
 step:   0.1505(harm=  0.1505)  dis= 0.00076  next Energy=  -341.795468 (dE=-0.138E-03)
 bond charge predicted
       N       E                     dE             d eps       ncg     rms          rms(c)
DAV:   1    -0.341795366592E+03   -0.18170E-04   -0.17479E-03  7312   0.971E-02    0.123E-01
RMM:   2    -0.341817648451E+03   -0.22282E-01   -0.19853E-03  7264   0.680E-02    0.273E+00
RMM:   3    -0.341796751834E+03    0.20897E-01   -0.19167E-03  7096   0.903E-02    0.648E-01
RMM:   4    -0.341795519758E+03    0.12321E-02   -0.28596E-04  4698   0.618E-02    0.214E-01
RMM:   5    -0.341795395840E+03    0.12392E-03   -0.44656E-05  3771   0.239E-02    0.167E-01
RMM:   6    -0.341795417285E+03   -0.21444E-04   -0.15281E-05  3177   0.120E-02
  70 F= -.34179542E+03 E0= -.34178726E+03  d E =-.873017E-04
 curvature:  -0.45 expect dE=-0.908E-03 dE for cont linesearch -0.192E-06
 trial: gam= 1.07535 g(F)=  0.202E-02 g(S)=  0.000E+00 ort =-0.683E-04 (trialstep = 0.103E+00)
 search vector abs. value=  0.145E-01
 bond charge predicted
       N       E                     dE             d eps       ncg     rms          rms(c)
DAV:   1    -0.341795409045E+03   -0.13205E-04   -0.76229E-02  7520   0.633E-01    0.153E-01
RMM:   2    -0.341837857527E+03   -0.42448E-01   -0.55689E-03  7780   0.141E-01    0.373E+00
RMM:   3    -0.341796565410E+03    0.41292E-01   -0.28161E-03  7153   0.118E-01    0.551E-01
RMM:   4    -0.341795514162E+03    0.10512E-02   -0.44435E-04  5233   0.731E-02    0.774E-02
RMM:   5    -0.341795902176E+03   -0.38801E-03   -0.13560E-04  4096   0.323E-02    0.274E-01
RMM:   6    -0.341795506207E+03    0.39597E-03   -0.57397E-05  3810   0.240E-02    0.573E-02
RMM:   7    -0.341795519533E+03   -0.13327E-04   -0.23583E-05  3374   0.139E-02
  71 F= -.34179552E+03 E0= -.34178737E+03  d E =-.102249E-03
 trial-energy change:   -0.000102  1 .order   -0.000164   -0.000200   -0.000129
 step:   0.2894(harm=  0.2894)  dis= 0.00169  next Energy=  -341.795699 (dE=-0.282E-03)
 bond charge predicted
       N       E                     dE             d eps       ncg     rms          rms(c)
DAV:   1    -0.341795173567E+03    0.33264E-03   -0.25190E-01  7488   0.115E+00    0.130E-01
RMM:   2    -0.341809170625E+03   -0.13997E-01   -0.70538E-03  7392   0.192E-01    0.221E+00
RMM:   3    -0.341796561939E+03    0.12609E-01   -0.10936E-03  6631   0.868E-02    0.601E-01
RMM:   4    -0.341795938939E+03    0.62300E-03   -0.27431E-04  4593   0.518E-02    0.343E-01
RMM:   5    -0.341795985357E+03   -0.46418E-04   -0.14135E-04  4142   0.302E-02
  72 F= -.34179599E+03 E0= -.34178767E+03  d E =-.568072E-03
 curvature:  -1.08 expect dE=-0.270E-02 dE for cont linesearch -0.167E-05
 trial: gam= 1.29439 g(F)=  0.250E-02 g(S)=  0.000E+00 ort =-0.150E-03 (trialstep = 0.768E-01)
 search vector abs. value=  0.264E-01
 bond charge predicted
       N       E                     dE             d eps       ncg     rms          rms(c)
DAV:   1    -0.341795647649E+03    0.29129E-03   -0.80150E-02  7488   0.662E-01    0.161E-01
RMM:   2    -0.341834482885E+03   -0.38835E-01   -0.50266E-03  7717   0.144E-01    0.344E+00
RMM:   3    -0.341797155577E+03    0.37327E-01   -0.25949E-03  7150   0.111E-01    0.776E-01
RMM:   4    -0.341795936719E+03    0.12189E-02   -0.55330E-04  5535   0.768E-02    0.195E-01
RMM:   5    -0.341795828238E+03    0.10848E-03   -0.10862E-04  4006   0.321E-02    0.141E-01
RMM:   6    -0.341796008265E+03   -0.18003E-03   -0.62423E-05  3950   0.237E-02    0.266E-01
RMM:   7    -0.341795803353E+03    0.20491E-03   -0.26195E-05  3676   0.162E-02    0.136E-01
RMM:   8    -0.341795792176E+03    0.11177E-04   -0.18644E-05  3448   0.119E-02
  73 F= -.34179579E+03 E0= -.34178767E+03  d E =0.193180E-03
 trial-energy change:    0.000193  1 .order   -0.000139   -0.000177   -0.000101
 step:   0.1786(harm=  0.1786)  dis= 0.00132  next Energy=  -341.796192 (dE=-0.206E-03)
 bond charge predicted
       N       E                     dE             d eps       ncg     rms          rms(c)
DAV:   1    -0.341795604787E+03    0.19857E-03   -0.13836E-01  7488   0.861E-01    0.663E-02
RMM:   2    -0.341796037272E+03   -0.43249E-03   -0.29809E-03  6943   0.134E-01    0.190E-01
RMM:   3    -0.341796667287E+03   -0.63002E-03   -0.19897E-04  4277   0.410E-02    0.489E-01
RMM:   4    -0.341795941163E+03    0.72612E-03   -0.91019E-05  3921   0.294E-02    0.231E-01
RMM:   5    -0.341795941359E+03   -0.19592E-06   -0.35898E-05  3768   0.200E-02
  74 F= -.34179594E+03 E0= -.34178762E+03  d E =0.439979E-04
 curvature:  -1.02 expect dE=-0.136E-02 dE for cont linesearch -0.184E-04
 ZBRENT: increasing intervall
 opt :   0.3821  next Energy=  -341.795955 (dE= 0.307E-04)
 bond charge predicted
       N       E                     dE             d eps       ncg     rms          rms(c)
DAV:   1    -0.341794805745E+03    0.11354E-02   -0.55505E-01  7488   0.172E+00    0.157E-01
RMM:   2    -0.341800198160E+03   -0.53924E-02   -0.12511E-02  7399   0.270E-01    0.937E-01
RMM:   3    -0.341799837103E+03    0.36106E-03   -0.13312E-03  7111   0.868E-02    0.120E+00
RMM:   4    -0.341796071044E+03    0.37661E-02   -0.62038E-04  5525   0.609E-02    0.312E-01
RMM:   5    -0.341795990055E+03    0.80989E-04   -0.12125E-04  4100   0.354E-02
  75 F= -.34179599E+03 E0= -.34178762E+03  d E =-.469837E-05
 curvature:  -0.74 expect dE=-0.245E-02 dE for cont linesearch -0.381E-05
 trial: gam= 1.57568 g(F)=  0.332E-02 g(S)=  0.000E+00 ort =-0.369E-03 (trialstep = 0.538E-01)
 search vector abs. value=  0.678E-01
 bond charge predicted
       N       E                     dE             d eps       ncg     rms          rms(c)
DAV:   1    -0.341796416245E+03   -0.34520E-03   -0.98664E-02  7488   0.722E-01    0.562E-01
RMM:   2    -0.342087020108E+03   -0.29060E+00   -0.32462E-02  7922   0.292E-01    0.884E+00
RMM:   3    -0.341841950409E+03    0.24507E+00   -0.28695E-02  7749   0.314E-01    0.350E+00
RMM:   4    -0.341798652373E+03    0.43298E-01   -0.69055E-03  7263   0.221E-01    0.697E-01
RMM:   5    -0.341797269082E+03    0.13833E-02   -0.14414E-03  7313   0.780E-02    0.443E-01
RMM:   6    -0.341796240939E+03    0.10281E-02   -0.49482E-04  5512   0.508E-02    0.308E-01
RMM:   7    -0.341795982868E+03    0.25807E-03   -0.10531E-04  4038   0.332E-02    0.143E-01
RMM:   8    -0.341795994489E+03   -0.11621E-04   -0.36649E-05  3809   0.192E-02
  76 F= -.34179599E+03 E0= -.34178782E+03  d E =-.443389E-05
 trial-energy change:   -0.000004  1 .order   -0.000115   -0.000147   -0.000083
 step:   0.1232(harm=  0.1232)  dis= 0.00150  next Energy=  -341.796159 (dE=-0.169E-03)
 bond charge predicted
       N       E                     dE             d eps       ncg     rms          rms(c)
DAV:   1    -0.341795698760E+03    0.28411E-03   -0.16371E-01  7488   0.929E-01    0.146E-01
RMM:   2    -0.341846393584E+03   -0.50695E-01   -0.76068E-03  7783   0.177E-01    0.396E+00
RMM:   3    -0.341796440358E+03    0.49953E-01   -0.24048E-03  7120   0.121E-01    0.362E-01
RMM:   4    -0.341796080374E+03    0.35998E-03   -0.51980E-04  5426   0.687E-02    0.345E-01
RMM:   5    -0.341796003426E+03    0.76948E-04   -0.19607E-04  4418   0.342E-02
  77 F= -.34179600E+03 E0= -.34178760E+03  d E =-.133709E-04
 curvature:  -1.52 expect dE=-0.349E-02 dE for cont linesearch -0.173E-05
 trial: gam= 0.08626 g(F)=  0.229E-02 g(S)=  0.000E+00 ort = 0.278E-03 (trialstep = 0.677E-01)
 search vector abs. value=  0.284E-02
 bond charge predicted
       N       E                     dE             d eps       ncg     rms          rms(c)
DAV:   1    -0.341796254031E+03   -0.17366E-03   -0.70398E-03  7936   0.213E-01    0.193E-01
RMM:   2    -0.341922346148E+03   -0.12609E+00   -0.93594E-03  7884   0.153E-01    0.587E+00
RMM:   3    -0.341798020692E+03    0.12433E+00   -0.58855E-03  7248   0.166E-01    0.512E-01
RMM:   4    -0.341795910539E+03    0.21102E-02   -0.12489E-03  6768   0.102E-01    0.112E-01
RMM:   5    -0.341796106195E+03   -0.19566E-03   -0.14810E-04  4201   0.394E-02    0.778E-02
RMM:   6    -0.341796128443E+03   -0.22248E-04   -0.43628E-05  3876   0.238E-02
  78 F= -.34179613E+03 E0= -.34178784E+03  d E =-.125017E-03
 ZBRENT: can't locate minimum, use default step
 trial-energy change:   -0.000125  1 .order   -0.000142   -0.000157   -0.000127
 step:   0.2706(harm=  0.3563)  dis= 0.00120  next Energy=  -341.796416 (dE=-0.412E-03)
 bond charge predicted
       N       E                     dE             d eps       ncg     rms          rms(c)
DAV:   1    -0.341796230272E+03   -0.12408E-03   -0.55263E-02  7488   0.540E-01    0.114E-01
RMM:   2    -0.341814598352E+03   -0.18368E-01   -0.33223E-03  7781   0.124E-01    0.258E+00
RMM:   3    -0.341796768200E+03    0.17830E-01   -0.13178E-03  6854   0.881E-02    0.397E-01
RMM:   4    -0.341796349731E+03    0.41847E-03   -0.20623E-04  4406   0.556E-02    0.132E-01
RMM:   5    -0.341796534130E+03   -0.18440E-03   -0.54082E-05  3914   0.247E-02    0.339E-01
RMM:   6    -0.341796483213E+03    0.50917E-04   -0.12116E-05  3356   0.114E-02
  79 F= -.34179648E+03 E0= -.34178817E+03  d E =-.479787E-03
 curvature:  -0.20 expect dE=-0.508E-03 dE for cont linesearch -0.576E-06
 trial: gam= 1.16407 g(F)=  0.255E-02 g(S)=  0.000E+00 ort =-0.906E-04 (trialstep = 0.497E-01)
 search vector abs. value=  0.619E-02
 bond charge predicted
       N       E                     dE             d eps       ncg     rms          rms(c)
DAV:   1    -0.341796538671E+03   -0.45412E-05   -0.69067E-03  7632   0.188E-01    0.277E-01
RMM:   2    -0.341918341111E+03   -0.12180E+00   -0.11626E-02  7814   0.165E-01    0.608E+00
RMM:   3    -0.341800469170E+03    0.11787E+00   -0.80321E-03  7466   0.184E-01    0.100E+00
RMM:   4    -0.341797002307E+03    0.34669E-02   -0.17390E-03  6558   0.118E-01    0.516E-01
RMM:   5    -0.341797674156E+03   -0.67185E-03   -0.31697E-04  4939   0.425E-02    0.490E-01
RMM:   6    -0.341796398028E+03    0.12761E-02   -0.14656E-04  4100   0.336E-02    0.176E-01
RMM:   7    -0.341796415152E+03   -0.17123E-04   -0.48838E-05  3854   0.237E-02
  80 F= -.34179642E+03 E0= -.34178821E+03  d E =0.680617E-04
 trial-energy change:    0.000068  1 .order   -0.000091   -0.000121   -0.000060
 step:   0.0984(harm=  0.0984)  dis= 0.00068  next Energy=  -341.796603 (dE=-0.120E-03)
 bond charge predicted
       N       E                     dE             d eps       ncg     rms          rms(c)
DAV:   1    -0.341796445457E+03   -0.47428E-04   -0.65842E-03  7504   0.183E-01    0.164E-01
RMM:   2    -0.341812310476E+03   -0.15865E-01   -0.24111E-03  7348   0.860E-02    0.244E+00
RMM:   3    -0.341802455101E+03    0.98554E-02   -0.21698E-03  7073   0.907E-02    0.140E+00
RMM:   4    -0.341796719590E+03    0.57355E-02   -0.54637E-04  5404   0.754E-02    0.261E-01
RMM:   5    -0.341796402608E+03    0.31698E-03   -0.11976E-04  4022   0.305E-02    0.121E-01
RMM:   6    -0.341796556241E+03   -0.15363E-03   -0.45636E-05  3608   0.216E-02    0.198E-01
RMM:   7    -0.341796440615E+03    0.11563E-03   -0.16644E-05  3229   0.125E-02    0.135E-01
RMM:   8    -0.341796450619E+03   -0.10004E-04   -0.55022E-06  2663   0.771E-03
  81 F= -.34179645E+03 E0= -.34178822E+03  d E =0.325942E-04
 curvature:  -0.12 expect dE=-0.198E-03 dE for cont linesearch -0.103E-05
 trial: gam= 0.49225 g(F)=  0.159E-02 g(S)=  0.000E+00 ort = 0.226E-03 (trialstep = 0.595E-01)
 search vector abs. value=  0.331E-02
 bond charge predicted
       N       E                     dE             d eps       ncg     rms          rms(c)
DAV:   1    -0.341796531679E+03   -0.91064E-04   -0.51069E-03  7424   0.159E-01    0.159E-01
RMM:   2    -0.341857363586E+03   -0.60832E-01   -0.52029E-03  7696   0.113E-01    0.452E+00
RMM:   3    -0.341797104556E+03    0.60259E-01   -0.36786E-03  7150   0.136E-01    0.319E-01
RMM:   4    -0.341796413725E+03    0.69083E-03   -0.60980E-04  5651   0.841E-02    0.148E-01
RMM:   5    -0.341796715494E+03   -0.30177E-03   -0.11361E-04  4050   0.315E-02    0.202E-01
RMM:   6    -0.341796497222E+03    0.21827E-03   -0.56285E-05  3838   0.221E-02    0.822E-02
RMM:   7    -0.341796485609E+03    0.11613E-04   -0.23265E-05  3362   0.152E-02
  82 F= -.34179649E+03 E0= -.34178817E+03  d E =-.349897E-04
 trial-energy change:   -0.000035  1 .order   -0.000073   -0.000101   -0.000046
 step:   0.1090(harm=  0.1090)  dis= 0.00114  next Energy=  -341.796543 (dE=-0.925E-04)
 bond charge predicted
       N       E                     dE             d eps       ncg     rms          rms(c)
DAV:   1    -0.341796521576E+03   -0.24353E-04   -0.35663E-03  7408   0.133E-01    0.707E-02
RMM:   2    -0.341804489684E+03   -0.79681E-02   -0.77033E-04  6204   0.494E-02    0.157E+00
RMM:   3    -0.341796857825E+03    0.76319E-02   -0.57749E-04  5866   0.566E-02    0.416E-01
RMM:   4    -0.341796705481E+03    0.15234E-03   -0.11566E-04  3983   0.420E-02    0.235E-01
RMM:   5    -0.341796531129E+03    0.17435E-03   -0.32647E-05  3758   0.193E-02    0.122E-01
RMM:   6    -0.341796584368E+03   -0.53239E-04   -0.12817E-05  3200   0.108E-02
  83 F= -.34179658E+03 E0= -.34178828E+03  d E =-.133749E-03
 curvature:  -0.11 expect dE=-0.995E-04 dE for cont linesearch -0.289E-05
 ZBRENT: increasing intervall
 opt :   0.2079  next Energy=  -341.796567 (dE=-0.117E-03)
 bond charge predicted
       N       E                     dE             d eps       ncg     rms          rms(c)
DAV:   1    -0.341796505648E+03    0.25481E-04   -0.14350E-02  7520   0.267E-01    0.930E-02
RMM:   2    -0.341799983208E+03   -0.34776E-02   -0.95161E-04  6371   0.684E-02    0.109E+00
RMM:   3    -0.341799231015E+03    0.75219E-03   -0.61311E-04  5853   0.521E-02    0.981E-01
RMM:   4    -0.341797140004E+03    0.20910E-02   -0.13646E-04  4150   0.449E-02    0.448E-01
RMM:   5    -0.341796495247E+03    0.64476E-03   -0.82232E-05  3875   0.226E-02    0.149E-01
RMM:   6    -0.341796556068E+03   -0.60821E-04   -0.24536E-05  3313   0.163E-02
  84 F= -.34179656E+03 E0= -.34178818E+03  d E =-.105449E-03
 curvature:   0.62 expect dE= 0.120E-02 dE for cont linesearch  0.507E-04
 ZBRENT: bracketing found
 ZBRENT: interpolating
 opt :   0.1452  next Energy=  -341.796590 (dE=-0.139E-03)
 bond charge predicted
       N       E                     dE             d eps       ncg     rms          rms(c)
DAV:   1    -0.341796572542E+03   -0.77295E-04   -0.57366E-03  7456   0.170E-01    0.172E-01
RMM:   2    -0.341829667091E+03   -0.33095E-01   -0.37544E-03  7530   0.978E-02    0.347E+00
RMM:   3    -0.341800424569E+03    0.29243E-01   -0.32324E-03  7209   0.115E-01    0.940E-01
RMM:   4    -0.341796639195E+03    0.37854E-02   -0.61421E-04  5853   0.809E-02    0.574E-02
RMM:   5    -0.341796656901E+03   -0.17705E-04   -0.67088E-05  3823   0.261E-02
  85 F= -.34179666E+03 E0= -.34178836E+03  d E =-.206282E-03
 curvature:  -0.07 expect dE=-0.380E-04 dE for cont linesearch -0.986E-05
 ZBRENT: interpolating
 opt :   0.1812  next Energy=  -341.796563 (dE=-0.112E-03)
 bond charge predicted
       N       E                     dE             d eps       ncg     rms          rms(c)
DAV:   1    -0.341796564184E+03    0.75011E-04   -0.20165E-03  7208   0.102E-01    0.119E-01
RMM:   2    -0.341833860242E+03   -0.37296E-01   -0.32948E-03  7480   0.878E-02    0.353E+00
RMM:   3    -0.341796682585E+03    0.37178E-01   -0.20882E-03  7024   0.106E-01    0.170E-01
RMM:   4    -0.341796461009E+03    0.22158E-03   -0.39944E-04  5117   0.656E-02    0.146E-01
RMM:   5    -0.341796567882E+03   -0.10687E-03   -0.97835E-05  3872   0.292E-02    0.904E-02
RMM:   6    -0.341796570565E+03   -0.26832E-05   -0.38270E-05  3769   0.194E-02
  86 F= -.34179657E+03 E0= -.34178822E+03  d E =-.119946E-03
 curvature:  -0.05 expect dE=-0.381E-04 dE for cont linesearch -0.464E-08
 trial: gam= 0.43977 g(F)=  0.811E-03 g(S)=  0.000E+00 ort = 0.181E-04 (trialstep = 0.838E-01)
 search vector abs. value=  0.147E-02
 bond charge predicted
       N       E                     dE             d eps       ncg     rms          rms(c)
DAV:   1    -0.341796584047E+03   -0.16166E-04   -0.53142E-03  7320   0.176E-01    0.488E-02
RMM:   2    -0.341799955991E+03   -0.33719E-02   -0.39136E-04  5057   0.433E-02    0.107E+00
RMM:   3    -0.341796649154E+03    0.33068E-02   -0.22767E-04  4306   0.444E-02    0.218E-01
RMM:   4    -0.341796619829E+03    0.29325E-04   -0.62266E-05  3793   0.321E-02
  87 F= -.34179662E+03 E0= -.34178834E+03  d E =-.492641E-04
 trial-energy change:   -0.000049  1 .order   -0.000058   -0.000069   -0.000047
 step:   0.2641(harm=  0.2641)  dis= 0.00176  next Energy=  -341.796679 (dE=-0.108E-03)
 bond charge predicted
       N       E                     dE             d eps       ncg     rms          rms(c)
DAV:   1    -0.341796637746E+03    0.11408E-04   -0.24171E-02  7520   0.373E-01    0.130E-01
RMM:   2    -0.341835408918E+03   -0.38771E-01   -0.36208E-03  7882   0.111E-01    0.340E+00
RMM:   3    -0.341797106058E+03    0.38303E-01   -0.22322E-03  7081   0.108E-01    0.427E-01
RMM:   4    -0.341797174940E+03   -0.68882E-04   -0.55854E-04  5765   0.735E-02
  88 F= -.34179717E+03 E0= -.34178887E+03  d E =-.604375E-03
 curvature:  -0.24 expect dE=-0.298E-03 dE for cont linesearch -0.118E-05
 trial: gam= 2.00729 g(F)=  0.126E-02 g(S)=  0.000E+00 ort =-0.854E-04 (trialstep = 0.258E-01)
 search vector abs. value=  0.682E-02
 bond charge predicted
       N       E                     dE             d eps       ncg     rms          rms(c)
DAV:   1    -0.341796913225E+03    0.19283E-03   -0.24681E-03  7632   0.129E-01    0.325E-01
RMM:   2    -0.342024010892E+03   -0.22710E+00   -0.19540E-02  7912   0.210E-01    0.849E+00
RMM:   3    -0.341801064009E+03    0.22295E+00   -0.14017E-02  7686   0.250E-01    0.817E-01
RMM:   4    -0.341796925379E+03    0.41386E-02   -0.25346E-03  6966   0.154E-01    0.411E-01
RMM:   5    -0.341797137420E+03   -0.21204E-03   -0.53749E-04  5484   0.520E-02    0.255E-01
RMM:   6    -0.341797161317E+03   -0.23897E-04   -0.17303E-04  4284   0.348E-02
  89 F= -.34179716E+03 E0= -.34178879E+03  d E =0.136228E-04
 trial-energy change:    0.000014  1 .order   -0.000024   -0.000028   -0.000021
 step:   0.0964(harm=  0.0964)  dis= 0.00095  next Energy=  -341.797227 (dE=-0.524E-04)
 bond charge predicted
       N       E                     dE             d eps       ncg     rms          rms(c)
DAV:   1    -0.341796585385E+03    0.55204E-03   -0.17134E-02  7520   0.315E-01    0.128E-01
RMM:   2    -0.341812014191E+03   -0.15429E-01   -0.25753E-03  7503   0.982E-02    0.233E+00
RMM:   3    -0.341797657852E+03    0.14356E-01   -0.11403E-03  6717   0.784E-02    0.622E-01
RMM:   4    -0.341796988725E+03    0.66913E-03   -0.43611E-04  5019   0.590E-02    0.386E-01
RMM:   5    -0.341796851597E+03    0.13713E-03   -0.91474E-05  3934   0.281E-02    0.273E-01
RMM:   6    -0.341796620625E+03    0.23097E-03   -0.46178E-05  3705   0.191E-02    0.133E-01
RMM:   7    -0.341796701334E+03   -0.80709E-04   -0.21194E-05  3407   0.143E-02
  90 F= -.34179670E+03 E0= -.34178843E+03  d E =0.473606E-03
 curvature:  -0.30 expect dE=-0.575E-03 dE for cont linesearch -0.389E-04
 ZBRENT: interpolating
 opt :   0.0582  next Energy=  -341.797174 (dE= 0.704E-06)
 bond charge predicted
       N       E                     dE             d eps       ncg     rms          rms(c)
DAV:   1    -0.341796657191E+03   -0.36566E-04   -0.48413E-03  7416   0.167E-01    0.128E-01
RMM:   2    -0.341825112266E+03   -0.28455E-01   -0.26888E-03  7541   0.842E-02    0.307E+00
RMM:   3    -0.341797448078E+03    0.27664E-01   -0.20168E-03  7085   0.966E-02    0.536E-01
RMM:   4    -0.341796682676E+03    0.76540E-03   -0.33822E-04  4835   0.638E-02    0.101E-01
RMM:   5    -0.341796871726E+03   -0.18905E-03   -0.76679E-05  3921   0.275E-02    0.197E-01
RMM:   6    -0.341796632930E+03    0.23880E-03   -0.27939E-05  3484   0.174E-02    0.253E-02
RMM:   7    -0.341796640979E+03   -0.80490E-05   -0.86674E-06  2959   0.897E-03
  91 F= -.34179664E+03 E0= -.34178834E+03  d E =0.533960E-03
 curvature:  -0.10 expect dE=-0.642E-04 dE for cont linesearch -0.239E-05
 ZBRENT: interpolating
 opt :   0.0473  next Energy=  -341.796643 (dE= 0.532E-03)
 bond charge predicted
       N       E                     dE             d eps       ncg     rms          rms(c)
DAV:   1    -0.341796646153E+03   -0.13223E-04   -0.38957E-04  6944   0.471E-02    0.302E-02
RMM:   2    -0.341797854086E+03   -0.12079E-02   -0.10053E-04  3967   0.198E-02    0.625E-01
RMM:   3    -0.341796640441E+03    0.12136E-02   -0.69030E-05  3797   0.276E-02    0.151E-01
RMM:   4    -0.341796657201E+03   -0.16760E-04   -0.26552E-05  3482   0.179E-02
  92 F= -.34179666E+03 E0= -.34178834E+03  d E =0.517739E-03
 curvature:  -0.09 expect dE=-0.446E-04 dE for cont linesearch -0.540E-06
 ZBRENT: interpolating
 opt :   0.0387  next Energy=  -341.796658 (dE= 0.517E-03)
 bond charge predicted
       N       E                     dE             d eps       ncg     rms          rms(c)
DAV:   1    -0.341796648612E+03   -0.81708E-05   -0.27877E-04  6320   0.426E-02    0.372E-02
RMM:   2    -0.341797002904E+03   -0.35429E-03   -0.76820E-05  3884   0.213E-02    0.349E-01
RMM:   3    -0.341797022268E+03   -0.19364E-04   -0.60536E-05  3853   0.232E-02
  93 F= -.34179702E+03 E0= -.34178863E+03  d E =0.152672E-03
 curvature:  -0.18 expect dE=-0.533E-03 dE for cont linesearch -0.315E-04
 ZBRENT: interpolating
 opt :   0.0312  next Energy=  -341.797163 (dE= 0.115E-04)
 bond charge predicted
       N       E                     dE             d eps       ncg     rms          rms(c)
DAV:   1    -0.341796622634E+03    0.38027E-03   -0.13568E-03  5280   0.851E-02    0.540E-02
RMM:   2    -0.341797853010E+03   -0.12304E-02   -0.16863E-04  4146   0.351E-02    0.692E-01
RMM:   3    -0.341797371154E+03    0.48186E-03   -0.17139E-04  4221   0.355E-02    0.500E-01
RMM:   4    -0.341796672190E+03    0.69896E-03   -0.65609E-05  3805   0.312E-02    0.105E-01
RMM:   5    -0.341796640503E+03    0.31687E-04   -0.16598E-05  3256   0.128E-02
  94 F= -.34179664E+03 E0= -.34178836E+03  d E =0.534437E-03
 curvature:  -0.01 expect dE=-0.632E-05 dE for cont linesearch -0.453E-07
 ZBRENT: interpolating
 opt :   0.0303  next Energy=  -341.796641 (dE= 0.534E-03)
 bond charge predicted
       N       E                     dE             d eps       ncg     rms          rms(c)
DAV:   1    -0.341796654917E+03    0.17273E-04   -0.64286E-05  3760   0.249E-02    0.374E-02
RMM:   2    -0.341799461907E+03   -0.28070E-02   -0.17802E-04  4287   0.261E-02    0.884E-01
RMM:   3    -0.341796671149E+03    0.27908E-02   -0.12998E-04  3910   0.374E-02    0.197E-01
RMM:   4    -0.341796673630E+03   -0.24801E-05   -0.56848E-05  3752   0.245E-02
  95 F= -.34179667E+03 E0= -.34178836E+03  d E =0.501310E-03
 curvature:  -0.02 expect dE=-0.709E-05 dE for cont linesearch -0.222E-07
 ZBRENT: interpolating
 opt :   0.0306  next Energy=  -341.796674 (dE= 0.501E-03)
 bond charge predicted
       N       E                     dE             d eps       ncg     rms          rms(c)
DAV:   1    -0.341796647868E+03    0.23282E-04   -0.14293E-04  3760   0.283E-02    0.342E-02
RMM:   2    -0.341798202644E+03   -0.15548E-02   -0.12037E-04  4074   0.211E-02    0.758E-01
RMM:   3    -0.341796686539E+03    0.15161E-02   -0.99878E-05  3857   0.332E-02    0.173E-01
RMM:   4    -0.341796650116E+03    0.36423E-04   -0.33025E-05  3588   0.218E-02
  96 F= -.34179665E+03 E0= -.34178834E+03  d E =0.524824E-03
 curvature:  -0.01 expect dE=-0.636E-05 dE for cont linesearch -0.627E-07
 ZBRENT: interpolating
 opt :   0.0304  next Energy=  -341.796674 (dE= 0.501E-03)
 bond charge predicted
       N       E                     dE             d eps       ncg     rms          rms(c)
DAV:   1    -0.341796670525E+03    0.16013E-04   -0.98111E-05  3816   0.291E-02    0.758E-02
RMM:   2    -0.341813095947E+03   -0.16425E-01   -0.12203E-03  7070   0.542E-02    0.223E+00
RMM:   3    -0.341796677700E+03    0.16418E-01   -0.87138E-04  6404   0.689E-02    0.207E-01
RMM:   4    -0.341796680611E+03   -0.29103E-05   -0.19601E-04  4305   0.473E-02
  97 F= -.34179668E+03 E0= -.34178833E+03  d E =0.494329E-03
 curvature:  -0.00 expect dE=-0.386E-06 dE for cont linesearch -0.137E-08
 ZBRENT: bisectioning
 opt :   0.0305  next Energy=  -341.796681 (dE= 0.494E-03)
 bond charge predicted
       N       E                     dE             d eps       ncg     rms          rms(c)
DAV:   1    -0.341796667276E+03    0.10424E-04   -0.32678E-04  4168   0.529E-02    0.688E-02
RMM:   2    -0.341799199301E+03   -0.25320E-02   -0.40115E-04  5155   0.402E-02    0.885E-01
RMM:   3    -0.341797670806E+03    0.15285E-02   -0.26238E-04  4607   0.431E-02    0.598E-01
RMM:   4    -0.341796646855E+03    0.10240E-02   -0.12293E-04  3880   0.375E-02    0.848E-02
RMM:   5    -0.341796643636E+03    0.32196E-05   -0.38214E-05  3627   0.193E-02
  98 F= -.34179664E+03 E0= -.34178831E+03  d E =0.531304E-03
 curvature:  -0.01 expect dE=-0.404E-05 dE for cont linesearch -0.458E-07
 ZBRENT: interpolating
 opt :   0.0304  next Energy=  -341.796681 (dE= 0.494E-03)
 bond charge predicted
       N       E                     dE             d eps       ncg     rms          rms(c)
DAV:   1    -0.341796662258E+03   -0.15402E-04   -0.54318E-05  3840   0.258E-02    0.513E-02
RMM:   2    -0.341804211801E+03   -0.75495E-02   -0.54089E-04  5677   0.396E-02    0.141E+00
RMM:   3    -0.341796778271E+03    0.74335E-02   -0.29403E-04  4729   0.481E-02    0.214E-01
RMM:   4    -0.341796641940E+03    0.13633E-03   -0.13317E-04  3910   0.376E-02    0.785E-02
RMM:   5    -0.341796655446E+03   -0.13506E-04   -0.36045E-05  3643   0.194E-02
  99 F= -.34179666E+03 E0= -.34178840E+03  d E =0.519494E-03
 curvature:  -0.00 expect dE=-0.136E-06 dE for cont linesearch -0.252E-10
 trial: gam= 0.17824 g(F)=  0.428E-03 g(S)=  0.000E+00 ort =-0.232E-04 (trialstep = 0.267E-01)
 search vector abs. value=  0.636E-03
 bond charge predicted
       N       E                     dE             d eps       ncg     rms          rms(c)
DAV:   1    -0.341796657881E+03   -0.15941E-04   -0.21938E-04  5672   0.358E-02    0.118E-02
RMM:   2    -0.341796763136E+03   -0.10526E-03   -0.25764E-05  3659   0.149E-02    0.185E-01
RMM:   3    -0.341796662680E+03    0.10046E-03   -0.89936E-06  3217   0.110E-02    0.743E-02
RMM:   4    -0.341796661143E+03    0.15367E-05   -0.28719E-06  2285   0.664E-03
 100 F= -.34179666E+03 E0= -.34178835E+03  d E =-.569684E-05
 ZBRENT: can't locate minimum, use default step
 trial-energy change:   -0.000006  1 .order   -0.000010   -0.000011   -0.000009
 step:   0.1068(harm=  0.1390)  dis= 0.00020  next Energy=  -341.796685 (dE=-0.295E-04)
 bond charge predicted
       N       E                     dE             d eps       ncg     rms          rms(c)
DAV:   1    -0.341796683113E+03   -0.20433E-04   -0.18800E-03  7088   0.982E-02    0.189E-02
RMM:   2    -0.341796936241E+03   -0.25313E-03   -0.60878E-05  3778   0.204E-02    0.305E-01
RMM:   3    -0.341796709858E+03    0.22638E-03   -0.24459E-05  3684   0.167E-02    0.118E-01
RMM:   4    -0.341796689817E+03    0.20042E-04   -0.78215E-06  3331   0.109E-02
 101 F= -.34179669E+03 E0= -.34178838E+03  d E =-.343707E-04
 curvature:  -0.10 expect dE=-0.156E-04 dE for cont linesearch -0.801E-05
 ZBRENT: increasing intervall
 opt :   0.2670  next Energy=  -341.796709 (dE=-0.534E-04)
 bond charge predicted
       N       E                     dE             d eps       ncg     rms          rms(c)
DAV:   1    -0.341796695219E+03    0.14640E-04   -0.74617E-03  7472   0.195E-01    0.291E-02
RMM:   2    -0.341797258287E+03   -0.56307E-03   -0.18072E-04  4127   0.365E-02    0.423E-01
RMM:   3    -0.341796730061E+03    0.52823E-03   -0.54288E-05  3773   0.250E-02    0.155E-01
RMM:   4    -0.341796782699E+03   -0.52638E-04   -0.21169E-05  3704   0.160E-02
 102 F= -.34179678E+03 E0= -.34178850E+03  d E =-.127253E-03
 curvature:  -0.23 expect dE=-0.590E-04 dE for cont linesearch -0.299E-06
 trial: gam= 0.83756 g(F)=  0.259E-03 g(S)=  0.000E+00 ort =-0.289E-04 (trialstep = 0.724E-01)
 search vector abs. value=  0.657E-03
 bond charge predicted
       N       E                     dE             d eps       ncg     rms          rms(c)
DAV:   1    -0.341796717104E+03    0.12956E-04   -0.16608E-03  7104   0.960E-02    0.886E-02
RMM:   2    -0.341814030686E+03   -0.17314E-01   -0.14573E-03  6985   0.598E-02    0.243E+00
RMM:   3    -0.341796723357E+03    0.17307E-01   -0.10849E-03  6677   0.758E-02    0.189E-01
RMM:   4    -0.341796697486E+03    0.25871E-04   -0.18280E-04  4197   0.495E-02
 103 F= -.34179670E+03 E0= -.34178836E+03  d E =0.852125E-04
 trial-energy change:    0.000085  1 .order   -0.000009   -0.000017   -0.000001
 step:   0.0791(harm=  0.0791)  dis= 0.00025  next Energy=  -341.796792 (dE=-0.928E-05)
 bond charge predicted
       N       E                     dE             d eps       ncg     rms          rms(c)
DAV:   1    -0.341796712954E+03    0.10403E-04   -0.10071E-04  4056   0.367E-02    0.579E-02
RMM:   2    -0.341797423931E+03   -0.71098E-03   -0.14208E-04  4164   0.275E-02    0.563E-01
RMM:   3    -0.341797533016E+03   -0.10909E-03   -0.14850E-04  4183   0.299E-02    0.521E-01
RMM:   4    -0.341796699779E+03    0.83324E-03   -0.69803E-05  3787   0.300E-02    0.912E-02
RMM:   5    -0.341796762604E+03   -0.62825E-04   -0.21232E-05  3417   0.157E-02
 104 F= -.34179676E+03 E0= -.34178846E+03  d E =0.200950E-04
 curvature:  -0.11 expect dE=-0.692E-04 dE for cont linesearch -0.203E-05
 ZBRENT: interpolating
 opt :   0.0734  next Energy=  -341.796697 (dE= 0.852E-04)
 bond charge predicted
       N       E                     dE             d eps       ncg     rms          rms(c)
DAV:   1    -0.341796711507E+03   -0.11728E-04   -0.16899E-04  3792   0.374E-02    0.378E-02
RMM:   2    -0.341796959703E+03   -0.24820E-03   -0.66844E-05  3786   0.199E-02    0.269E-01
RMM:   3    -0.341796937911E+03    0.21792E-04   -0.53342E-05  3650   0.225E-02
 105 F= -.34179694E+03 E0= -.34178869E+03  d E =-.155212E-03
 curvature:  -0.00 expect dE=-0.282E-06 dE for cont linesearch -0.748E-07
 ZBRENT: interpolating
 opt :   0.0775  next Energy=  -341.796763 (dE= 0.200E-04)
 bond charge predicted
       N       E                     dE             d eps       ncg     rms          rms(c)
DAV:   1    -0.341796691001E+03    0.26870E-03   -0.78955E-04  3792   0.640E-02    0.408E-02
RMM:   2    -0.341798743521E+03   -0.20525E-02   -0.10403E-04  4032   0.207E-02    0.834E-01
RMM:   3    -0.341796803886E+03    0.19396E-02   -0.13640E-04  3982   0.353E-02    0.246E-01
RMM:   4    -0.341796778969E+03    0.24916E-04   -0.49815E-05  3726   0.270E-02
 106 F= -.34179678E+03 E0= -.34178846E+03  d E =0.372936E-05
 curvature:  -0.00 expect dE=-0.508E-06 dE for cont linesearch -0.264E-07
 ZBRENT: bisectioning
 opt :   0.0755  next Energy=  -341.796779 (dE= 0.330E-05)
 bond charge predicted
       N       E                     dE             d eps       ncg     rms          rms(c)
DAV:   1    -0.341796704356E+03    0.99530E-04   -0.17354E-04  3792   0.341E-02    0.227E-02
RMM:   2    -0.341796877368E+03   -0.17301E-03   -0.31462E-05  3293   0.143E-02    0.270E-01
RMM:   3    -0.341796791831E+03    0.85536E-04   -0.19488E-05  3060   0.130E-02
 107 F= -.34179679E+03 E0= -.34178851E+03  d E =-.913244E-05
 curvature:  -0.01 expect dE=-0.767E-05 dE for cont linesearch -0.187E-06
 ZBRENT: bisectioning
 opt :   0.0745  next Energy=  -341.796792 (dE=-0.923E-05)
 bond charge predicted
       N       E                     dE             d eps       ncg     rms          rms(c)
DAV:   1    -0.341796738066E+03    0.13930E-03   -0.68173E-04  3816   0.666E-02    0.919E-02
RMM:   2    -0.341822248588E+03   -0.25511E-01   -0.18315E-03  7360   0.634E-02    0.284E+00
RMM:   3    -0.341796722522E+03    0.25526E-01   -0.14012E-03  6929   0.862E-02    0.148E-01
RMM:   4    -0.341796775444E+03   -0.52921E-04   -0.28149E-04  4730   0.551E-02
 108 F= -.34179678E+03 E0= -.34178836E+03  d E =0.725512E-05
 curvature:  -0.01 expect dE=-0.976E-06 dE for cont linesearch -0.488E-07
 ZBRENT: interpolating
 opt :   0.0749  next Energy=  -341.796775 (dE= 0.724E-05)
 bond charge predicted
       N       E                     dE             d eps       ncg     rms          rms(c)
DAV:   1    -0.341796720159E+03    0.23636E-05   -0.34856E-04  4272   0.595E-02    0.477E-02
RMM:   2    -0.341800614668E+03   -0.38945E-02   -0.28621E-04  4735   0.344E-02    0.117E+00
RMM:   3    -0.341796661956E+03    0.39527E-02   -0.18715E-04  4252   0.410E-02    0.104E-01
RMM:   4    -0.341796712166E+03   -0.50210E-04   -0.78283E-05  3771   0.302E-02
 109 F= -.34179671E+03 E0= -.34178837E+03  d E =0.705323E-04
 curvature:  -0.00 expect dE=-0.997E-06 dE for cont linesearch -0.254E-07
 ZBRENT: interpolating
 opt :   0.0746  next Energy=  -341.796775 (dE= 0.725E-05)
 bond charge predicted
       N       E                     dE             d eps       ncg     rms          rms(c)
DAV:   1    -0.341796711668E+03   -0.49712E-04   -0.71195E-05  3816   0.237E-02    0.438E-02
RMM:   2    -0.341799920436E+03   -0.32088E-02   -0.31539E-04  4948   0.305E-02    0.991E-01
RMM:   3    -0.341796724964E+03    0.31955E-02   -0.15937E-04  4043   0.387E-02    0.210E-01
RMM:   4    -0.341796721539E+03    0.34247E-05   -0.64129E-05  3712   0.283E-02
 110 F= -.34179672E+03 E0= -.34178841E+03  d E =0.611595E-04
 curvature:  -0.00 expect dE=-0.217E-06 dE for cont linesearch -0.177E-09
 trial: gam= 1.67991 g(F)=  0.418E-03 g(S)=  0.000E+00 ort =-0.150E-04 (trialstep = 0.215E-01)
 search vector abs. value=  0.222E-02
 bond charge predicted
       N       E                     dE             d eps       ncg     rms          rms(c)
DAV:   1    -0.341796723126E+03    0.18379E-05   -0.57807E-04  7024   0.633E-02    0.310E-02
RMM:   2    -0.341796894416E+03   -0.17129E-03   -0.78833E-05  3935   0.226E-02    0.182E-01
RMM:   3    -0.341796729703E+03    0.16471E-03   -0.38087E-05  3748   0.230E-02    0.672E-02
RMM:   4    -0.341796760270E+03   -0.30567E-04   -0.89424E-06  2877   0.809E-03
 111 F= -.34179676E+03 E0= -.34178841E+03  d E =-.387311E-04
 trial-energy change:   -0.000039  1 .order   -0.000007   -0.000008   -0.000005
 step:   0.0602(harm=  0.0602)  dis= 0.00026  next Energy=  -341.796733 (dE=-0.118E-04)
 bond charge predicted
       N       E                     dE             d eps       ncg     rms          rms(c)
DAV:   1    -0.341796726912E+03    0.27908E-05   -0.17051E-03  7088   0.100E-01    0.398E-02
RMM:   2    -0.341800809369E+03   -0.40825E-02   -0.30543E-04  4888   0.340E-02    0.110E+00
RMM:   3    -0.341796676248E+03    0.41331E-02   -0.18437E-04  4112   0.420E-02    0.113E-01
RMM:   4    -0.341796766187E+03   -0.89939E-04   -0.71464E-05  3820   0.290E-02
 112 F= -.34179677E+03 E0= -.34178846E+03  d E =-.446476E-04
 curvature:  -0.17 expect dE=-0.100E-03 dE for cont linesearch -0.252E-05
 ZBRENT: increasing intervall
 opt :   0.1376  next Energy=  -341.796775 (dE=-0.532E-04)
 bond charge predicted
       N       E                     dE             d eps       ncg     rms          rms(c)
DAV:   1    -0.341796731122E+03   -0.54874E-04   -0.66633E-03  7408   0.198E-01    0.380E-02
RMM:   2    -0.341798275010E+03   -0.15439E-02   -0.29908E-04  4633   0.427E-02    0.608E-01
RMM:   3    -0.341796817389E+03    0.14576E-02   -0.64821E-05  3828   0.294E-02    0.181E-01
RMM:   4    -0.341796750618E+03    0.66771E-04   -0.37919E-05  3667   0.174E-02
 113 F= -.34179675E+03 E0= -.34178845E+03  d E =-.290790E-04
 curvature:  -0.58 expect dE=-0.115E-03 dE for cont linesearch -0.326E-06
 trial: gam= 0.36631 g(F)=  0.200E-03 g(S)=  0.000E+00 ort = 0.354E-04 (trialstep = 0.448E-01)
 search vector abs. value=  0.524E-03
 bond charge predicted
       N       E                     dE             d eps       ncg     rms          rms(c)
DAV:   1    -0.341796770777E+03    0.46612E-04   -0.58677E-04  7040   0.625E-02    0.944E-02
RMM:   2    -0.341813278226E+03   -0.16507E-01   -0.14120E-03  7228   0.606E-02    0.225E+00
RMM:   3    -0.341797050657E+03    0.16228E-01   -0.97781E-04  6561   0.706E-02    0.385E-01
RMM:   4    -0.341796789818E+03    0.26084E-03   -0.26505E-04  4585   0.517E-02    0.128E-01
RMM:   5    -0.341796787376E+03    0.24424E-05   -0.55289E-05  3774   0.241E-02
 114 F= -.34179679E+03 E0= -.34178841E+03  d E =-.367575E-04
 ZBRENT: can't locate minimum, use default step
 trial-energy change:   -0.000037  1 .order   -0.000010   -0.000010   -0.000010
 step:   0.1790(harm=  0.1790)  dis= 0.00037  next Energy=  -341.796791 (dE=-0.404E-04)
 bond charge predicted
       N       E                     dE             d eps       ncg     rms          rms(c)
DAV:   1    -0.341796767594E+03    0.22224E-04   -0.48231E-03  7208   0.172E-01    0.441E-02
RMM:   2    -0.341798331426E+03   -0.15638E-02   -0.28582E-04  4604   0.415E-02    0.640E-01
RMM:   3    -0.341797009089E+03    0.13223E-02   -0.11310E-04  3925   0.343E-02    0.347E-01
RMM:   4    -0.341796761904E+03    0.24718E-03   -0.55387E-05  3764   0.250E-02    0.462E-02
RMM:   5    -0.341796796494E+03   -0.34589E-04   -0.19285E-05  3393   0.136E-02
 115 F= -.34179680E+03 E0= -.34178844E+03  d E =-.458754E-04
 curvature:  -0.34 expect dE=-0.149E-03 dE for cont linesearch -0.777E-05
 ZBRENT: increasing intervall
 opt :   0.4476  next Energy=  -341.796797 (dE=-0.462E-04)
 bond charge predicted
       N       E                     dE             d eps       ncg     rms          rms(c)
DAV:   1    -0.341796753102E+03    0.88027E-05   -0.19082E-02  7488   0.338E-01    0.491E-02
RMM:   2    -0.341800614215E+03   -0.38611E-02   -0.78154E-04  6531   0.662E-02    0.106E+00
RMM:   3    -0.341796867578E+03    0.37466E-02   -0.17979E-04  4177   0.419E-02    0.260E-01
RMM:   4    -0.341796780578E+03    0.87000E-04   -0.72092E-05  3783   0.315E-02
 116 F= -.34179678E+03 E0= -.34178843E+03  d E =-.299601E-04
 curvature:  -0.02 expect dE=-0.579E-05 dE for cont linesearch -0.150E-06
 ZBRENT: bracketing found
 ZBRENT: interpolating
 opt :   0.3413  next Energy=  -341.796784 (dE=-0.338E-04)
 bond charge predicted
       N       E                     dE             d eps       ncg     rms          rms(c)
DAV:   1    -0.341796865073E+03    0.25050E-05   -0.31345E-03  7168   0.141E-01    0.158E-01
RMM:   2    -0.341868527459E+03   -0.71662E-01   -0.58633E-03  7775   0.118E-01    0.467E+00
RMM:   3    -0.341797858093E+03    0.70669E-01   -0.36559E-03  7139   0.138E-01    0.424E-01
RMM:   4    -0.341796722471E+03    0.11356E-02   -0.89935E-04  6380   0.880E-02    0.151E-01
RMM:   5    -0.341796914134E+03   -0.19166E-03   -0.13878E-04  4109   0.362E-02    0.146E-01
RMM:   6    -0.341796794473E+03    0.11966E-03   -0.46728E-05  3831   0.238E-02    0.570E-02
RMM:   7    -0.341796790214E+03    0.42585E-05   -0.14431E-05  3267   0.112E-02
 117 F= -.34179679E+03 E0= -.34178844E+03  d E =-.395958E-04
 curvature:  -0.39 expect dE=-0.124E-03 dE for cont linesearch -0.118E-06
 trial: gam= 1.75478 g(F)=  0.322E-03 g(S)=  0.000E+00 ort = 0.127E-04 (trialstep = 0.275E-01)
 search vector abs. value=  0.198E-02
 bond charge predicted
       N       E                     dE             d eps       ncg     rms          rms(c)
DAV:   1    -0.341796799584E+03   -0.51116E-05   -0.76188E-04  7232   0.671E-02    0.548E-02
RMM:   2    -0.341802191226E+03   -0.53916E-02   -0.45196E-04  5435   0.357E-02    0.136E+00
RMM:   3    -0.341796851102E+03    0.53401E-02   -0.34949E-04  4977   0.489E-02    0.206E-01
RMM:   4    -0.341796798684E+03    0.52417E-04   -0.79203E-05  3799   0.356E-02
 118 F= -.34179680E+03 E0= -.34178846E+03  d E =-.847036E-05
 ZBRENT: can't locate minimum, use default step
 trial-energy change:   -0.000008  1 .order   -0.000008   -0.000009   -0.000007
 step:   0.1102(harm=  0.1207)  dis= 0.00048  next Energy=  -341.796811 (dE=-0.207E-04)
 bond charge predicted
       N       E                     dE             d eps       ncg     rms          rms(c)
DAV:   1    -0.341796823594E+03    0.27508E-04   -0.68524E-03  7368   0.201E-01    0.800E-02
RMM:   2    -0.341807319536E+03   -0.10496E-01   -0.11346E-03  6982   0.625E-02    0.166E+00
RMM:   3    -0.341797325732E+03    0.99938E-02   -0.63357E-04  6004   0.576E-02    0.529E-01
RMM:   4    -0.341796943843E+03    0.38189E-03   -0.21483E-04  4357   0.478E-02    0.223E-01
RMM:   5    -0.341796858627E+03    0.85216E-04   -0.56176E-05  3834   0.234E-02
 119 F= -.34179686E+03 E0= -.34178861E+03  d E =-.684132E-04
 curvature:  -0.34 expect dE=-0.177E-03 dE for cont linesearch -0.150E-05
 ZBRENT: interpolating
 opt :   0.0887  next Energy=  -341.796860 (dE=-0.694E-04)
 bond charge predicted
       N       E                     dE             d eps       ncg     rms          rms(c)
DAV:   1    -0.341796806316E+03    0.13753E-03   -0.54038E-04  7264   0.615E-02    0.835E-02
RMM:   2    -0.341810856621E+03   -0.14050E-01   -0.10934E-03  6757   0.536E-02    0.216E+00
RMM:   3    -0.341796926455E+03    0.13930E-01   -0.95023E-04  6501   0.694E-02    0.287E-01
RMM:   4    -0.341796903695E+03    0.22760E-04   -0.16000E-04  4169   0.477E-02
 120 F= -.34179690E+03 E0= -.34178851E+03  d E =-.113481E-03
 curvature:  -0.23 expect dE=-0.870E-04 dE for cont linesearch -0.475E-07
 trial: gam= 1.26954 g(F)=  0.381E-03 g(S)=  0.000E+00 ort = 0.203E-04 (trialstep = 0.217E-01)
 search vector abs. value=  0.362E-02
 bond charge predicted
       N       E                     dE             d eps       ncg     rms          rms(c)
DAV:   1    -0.341796822625E+03    0.10383E-03   -0.12789E-03  7264   0.955E-02    0.645E-02
RMM:   2    -0.341800511091E+03   -0.36885E-02   -0.49113E-04  5652   0.444E-02    0.921E-01
RMM:   3    -0.341797293024E+03    0.32181E-02   -0.23750E-04  4461   0.404E-02    0.496E-01
RMM:   4    -0.341796854495E+03    0.43853E-03   -0.15030E-04  4069   0.383E-02    0.105E-01
RMM:   5    -0.341796812006E+03    0.42489E-04   -0.35408E-05  3575   0.190E-02
 121 F= -.34179681E+03 E0= -.34178846E+03  d E =0.916886E-04
 ZBRENT: can't locate minimum, use default step
 trial-energy change:    0.000092  1 .order   -0.000008   -0.000009   -0.000008
 step:   0.0869(harm=  0.1848)  dis= 0.00053  next Energy=  -341.796941 (dE=-0.376E-04)
 bond charge predicted
       N       E                     dE             d eps       ncg     rms          rms(c)
DAV:   1    -0.341796817181E+03    0.37314E-04   -0.76257E-03  7392   0.210E-01    0.288E-02
RMM:   2    -0.341798390119E+03   -0.15729E-02   -0.24545E-04  4325   0.387E-02    0.694E-01
RMM:   3    -0.341796776855E+03    0.16133E-02   -0.80364E-05  3783   0.316E-02    0.565E-02
RMM:   4    -0.341796880455E+03   -0.10360E-03   -0.36448E-05  3780   0.189E-02    0.114E-01
RMM:   5    -0.341796840789E+03    0.39666E-04   -0.94530E-06  3272   0.111E-02
 122 F= -.34179684E+03 E0= -.34178851E+03  d E =0.629059E-04
 curvature:  -0.53 expect dE=-0.168E-03 dE for cont linesearch -0.267E-05
 ZBRENT: increasing intervall
 opt :   0.2173  next Energy=  -341.796829 (dE= 0.744E-04)
 bond charge predicted
       N       E                     dE             d eps       ncg     rms          rms(c)
DAV:   1    -0.341796787341E+03    0.93114E-04   -0.30321E-02  7488   0.417E-01    0.568E-02
RMM:   2    -0.341800300463E+03   -0.35131E-02   -0.98085E-04  6707   0.749E-02    0.103E+00
RMM:   3    -0.341797092339E+03    0.32081E-02   -0.23586E-04  4480   0.415E-02    0.390E-01
RMM:   4    -0.341796874662E+03    0.21768E-03   -0.78523E-05  3822   0.350E-02    0.139E-01
RMM:   5    -0.341796950421E+03   -0.75759E-04   -0.22519E-05  3548   0.146E-02
 123 F= -.34179695E+03 E0= -.34178865E+03  d E =-.467261E-04
 curvature:   2.25 expect dE= 0.224E-02 dE for cont linesearch  0.336E-05
 ZBRENT: bracketing found
 ZBRENT: interpolating
 opt :   0.1715  next Energy=  -341.796952 (dE=-0.484E-04)
 bond charge predicted
       N       E                     dE             d eps       ncg     rms          rms(c)
DAV:   1    -0.341796858589E+03    0.16072E-04   -0.40732E-03  7088   0.158E-01    0.145E-01
RMM:   2    -0.341800078831E+03   -0.32202E-02   -0.13215E-03  6163   0.646E-02    0.123E+00
RMM:   3    -0.341800026339E+03    0.52492E-04   -0.88582E-04  5997   0.572E-02
 124 F= -.34180003E+03 E0= -.34179166E+03  d E =-.312264E-02
 curvature:  -1.13 expect dE=-0.120E-01 dE for cont linesearch -0.173E-03
 ZBRENT: interpolating
 opt :   0.2132  next Energy=  -341.796951 (dE=-0.469E-04)
 bond charge predicted
       N       E                     dE             d eps       ncg     rms          rms(c)
DAV:   1    -0.341796826747E+03    0.32521E-02   -0.15466E-02  9296   0.284E-01    0.200E-01
RMM:   2    -0.341876705971E+03   -0.79879E-01   -0.59028E-03  7584   0.126E-01    0.516E+00
RMM:   3    -0.341798518522E+03    0.78187E-01   -0.54518E-03  7234   0.155E-01    0.630E-01
RMM:   4    -0.341797122489E+03    0.13960E-02   -0.89037E-04  6107   0.102E-01    0.311E-01
RMM:   5    -0.341797056993E+03    0.65496E-04   -0.12698E-04  4004   0.341E-02
 125 F= -.34179706E+03 E0= -.34178883E+03  d E =-.153298E-03
 curvature:  -0.00 expect dE=-0.734E-06 dE for cont linesearch -0.460E-11
 trial: gam= 2.02122 g(F)=  0.742E-03 g(S)=  0.000E+00 ort = 0.410E-05 (trialstep = 0.140E-01)
 search vector abs. value=  0.156E-01
 bond charge predicted
       N       E                     dE             d eps       ncg     rms          rms(c)
DAV:   1    -0.341796874347E+03    0.24814E-03   -0.26657E-03  8216   0.143E-01    0.929E-02
RMM:   2    -0.341824706917E+03   -0.27833E-01   -0.20295E-03  7303   0.770E-02    0.280E+00
RMM:   3    -0.341797430519E+03    0.27276E-01   -0.12316E-03  6845   0.836E-02    0.317E-01
RMM:   4    -0.341796778751E+03    0.65177E-03   -0.39612E-04  5249   0.572E-02    0.876E-02
RMM:   5    -0.341796874822E+03   -0.96072E-04   -0.69149E-05  3755   0.285E-02
 126 F= -.34179687E+03 E0= -.34178847E+03  d E =0.182170E-03
 ZBRENT: can't locate minimum, use default step
 trial-energy change:    0.000182  1 .order   -0.000009   -0.000010   -0.000008
 step:   0.0559(harm=  0.0579)  dis= 0.00074  next Energy=  -341.797079 (dE=-0.217E-04)
 bond charge predicted
       N       E                     dE             d eps       ncg     rms          rms(c)
DAV:   1    -0.341796833573E+03   -0.54822E-04   -0.13535E-02  7488   0.281E-01    0.536E-02
RMM:   2    -0.341798965206E+03   -0.21316E-02   -0.57273E-04  5620   0.547E-02    0.903E-01
RMM:   3    -0.341797175039E+03    0.17902E-02   -0.19395E-04  4206   0.404E-02    0.324E-01
RMM:   4    -0.341796862450E+03    0.31259E-03   -0.73820E-05  3774   0.327E-02    0.363E-02
RMM:   5    -0.341796880056E+03   -0.17606E-04   -0.21753E-05  3443   0.142E-02
 127 F= -.34179688E+03 E0= -.34178851E+03  d E =0.176937E-03
 curvature:  -0.60 expect dE=-0.617E-03 dE for cont linesearch -0.333E-08
 trial: gam= 0.56964 g(F)=  0.103E-02 g(S)=  0.000E+00 ort = 0.931E-05 (trialstep = 0.224E-01)
 search vector abs. value=  0.609E-02
 bond charge predicted
       N       E                     dE             d eps       ncg     rms          rms(c)
DAV:   1    -0.341796875339E+03   -0.12889E-04   -0.15389E-03  7056   0.939E-02    0.351E-02
RMM:   2    -0.341797149627E+03   -0.27429E-03   -0.10918E-04  3975   0.255E-02    0.346E-01
RMM:   3    -0.341797075133E+03    0.74494E-04   -0.46427E-05  3850   0.221E-02
 128 F= -.34179708E+03 E0= -.34178871E+03  d E =-.195077E-03
 trial-energy change:   -0.000195  1 .order   -0.000019   -0.000023   -0.000015
 step:   0.0657(harm=  0.0657)  dis= 0.00055  next Energy=  -341.796914 (dE=-0.340E-04)
 bond charge predicted
       N       E                     dE             d eps       ncg     rms          rms(c)
DAV:   1    -0.341796916773E+03    0.23285E-03   -0.68531E-03  7248   0.200E-01    0.121E-01
RMM:   2    -0.341832427608E+03   -0.35511E-01   -0.28209E-03  7566   0.865E-02    0.333E+00
RMM:   3    -0.341797218035E+03    0.35210E-01   -0.21447E-03  7104   0.101E-01    0.398E-01
RMM:   4    -0.341796899129E+03    0.31891E-03   -0.32419E-04  4891   0.639E-02    0.925E-02
RMM:   5    -0.341797053453E+03   -0.15432E-03   -0.78241E-05  3870   0.289E-02    0.150E-01
RMM:   6    -0.341796931398E+03    0.12205E-03   -0.40753E-05  3745   0.193E-02    0.108E-01
RMM:   7    -0.341796918158E+03    0.13240E-04   -0.14666E-05  3227   0.119E-02
 129 F= -.34179692E+03 E0= -.34178854E+03  d E =-.381016E-04
 curvature:  -0.19 expect dE=-0.399E-04 dE for cont linesearch -0.319E-05
 ZBRENT: increasing intervall
 opt :   0.1524  next Energy=  -341.796914 (dE=-0.339E-04)
 bond charge predicted
       N       E                     dE             d eps       ncg     rms          rms(c)
DAV:   1    -0.341796873195E+03    0.58203E-04   -0.22608E-02  7488   0.356E-01    0.530E-02
RMM:   2    -0.341799335584E+03   -0.24624E-02   -0.66918E-04  5893   0.634E-02    0.883E-01
RMM:   3    -0.341797028667E+03    0.23069E-02   -0.17758E-04  4137   0.400E-02    0.283E-01
RMM:   4    -0.341797043023E+03   -0.14357E-04   -0.63183E-05  3867   0.312E-02
 130 F= -.34179704E+03 E0= -.34178866E+03  d E =-.162967E-03
 curvature:   0.26 expect dE= 0.255E-03 dE for cont linesearch  0.995E-05
 ZBRENT: bracketing found
 ZBRENT: interpolating
 opt :   0.0999  next Energy=  -341.796924 (dE=-0.435E-04)
 bond charge predicted
       N       E                     dE             d eps       ncg     rms          rms(c)
DAV:   1    -0.341796923521E+03    0.10515E-03   -0.88317E-03  7344   0.227E-01    0.126E-01
RMM:   2    -0.341814962604E+03   -0.18039E-01   -0.22862E-03  7681   0.851E-02    0.232E+00
RMM:   3    -0.341797842527E+03    0.17120E-01   -0.11373E-03  6794   0.753E-02    0.671E-01
RMM:   4    -0.341796989841E+03    0.85269E-03   -0.48873E-04  5165   0.610E-02    0.198E-01
RMM:   5    -0.341796935694E+03    0.54147E-04   -0.98221E-05  3910   0.280E-02
 131 F= -.34179694E+03 E0= -.34178854E+03  d E =-.556378E-04
 curvature:  -0.14 expect dE=-0.355E-04 dE for cont linesearch -0.431E-06
 ZBRENT: interpolating
 opt :   0.1203  next Energy=  -341.796937 (dE=-0.573E-04)
 bond charge predicted
       N       E                     dE             d eps       ncg     rms          rms(c)
DAV:   1    -0.341796923127E+03    0.66714E-04   -0.13536E-03  7104   0.934E-02    0.545E-02
RMM:   2    -0.341802008822E+03   -0.50857E-02   -0.40324E-04  5249   0.372E-02    0.124E+00
RMM:   3    -0.341797016960E+03    0.49919E-02   -0.31677E-04  4805   0.476E-02    0.282E-01
RMM:   4    -0.341797089973E+03   -0.73013E-04   -0.94005E-05  3906   0.362E-02
 132 F= -.34179709E+03 E0= -.34178874E+03  d E =-.209917E-03
 curvature:  -0.55 expect dE=-0.377E-03 dE for cont linesearch -0.289E-05
 ZBRENT: interpolating
 opt :   0.1088  next Energy=  -341.796936 (dE=-0.562E-04)
 bond charge predicted
       N       E                     dE             d eps       ncg     rms          rms(c)
DAV:   1    -0.341796929480E+03    0.87480E-04   -0.60785E-04  7128   0.658E-02    0.944E-02
RMM:   2    -0.341818294828E+03   -0.21365E-01   -0.17469E-03  7179   0.652E-02    0.261E+00
RMM:   3    -0.341797032539E+03    0.21262E-01   -0.12741E-03  6880   0.811E-02    0.246E-01
RMM:   4    -0.341796905079E+03    0.12746E-03   -0.22373E-04  4423   0.522E-02    0.107E-01
RMM:   5    -0.341796952520E+03   -0.47441E-04   -0.56019E-05  3790   0.247E-02
 133 F= -.34179695E+03 E0= -.34178849E+03  d E =-.724637E-04
 curvature:  -0.12 expect dE=-0.280E-04 dE for cont linesearch -0.155E-05
 ZBRENT: interpolating
 opt :   0.1158  next Energy=  -341.797090 (dE=-0.210E-03)
 bond charge predicted
       N       E                     dE             d eps       ncg     rms          rms(c)
DAV:   1    -0.341796924572E+03   -0.19493E-04   -0.26564E-04  4728   0.553E-02    0.480E-02
RMM:   2    -0.341803285286E+03   -0.63607E-02   -0.38874E-04  5227   0.414E-02    0.135E+00
RMM:   3    -0.341796924197E+03    0.63611E-02   -0.24651E-04  4519   0.469E-02    0.136E-01
RMM:   4    -0.341796944712E+03   -0.20516E-04   -0.10742E-04  3915   0.340E-02
 134 F= -.34179694E+03 E0= -.34178863E+03  d E =-.646565E-04
 curvature:  -0.03 expect dE=-0.756E-05 dE for cont linesearch -0.440E-08
 trial: gam= 0.26094 g(F)=  0.256E-03 g(S)=  0.000E+00 ort = 0.301E-04 (trialstep = 0.411E-01)
 search vector abs. value=  0.686E-03
 bond charge predicted
       N       E                     dE             d eps       ncg     rms          rms(c)
DAV:   1    -0.341796930294E+03   -0.60972E-05   -0.70167E-04  7280   0.690E-02    0.269E-02
RMM:   2    -0.341798715744E+03   -0.17854E-02   -0.13178E-04  4026   0.256E-02    0.720E-01
RMM:   3    -0.341796926636E+03    0.17891E-02   -0.61267E-05  3808   0.279E-02    0.925E-02
RMM:   4    -0.341796912575E+03    0.14061E-04   -0.33153E-05  3629   0.163E-02
 135 F= -.34179691E+03 E0= -.34178858E+03  d E =0.321375E-04
 trial-energy change:    0.000032  1 .order   -0.000009   -0.000011   -0.000008
 step:   0.1574(harm=  0.1574)  dis= 0.00040  next Energy=  -341.796965 (dE=-0.208E-04)
 bond charge predicted
       N       E                     dE             d eps       ncg     rms          rms(c)
DAV:   1    -0.341796944503E+03   -0.17867E-04   -0.45308E-03  7368   0.161E-01    0.472E-02
RMM:   2    -0.341801045484E+03   -0.41010E-02   -0.38770E-04  5146   0.409E-02    0.112E+00
RMM:   3    -0.341796979203E+03    0.40663E-02   -0.25014E-04  4431   0.455E-02    0.238E-01
RMM:   4    -0.341797092708E+03   -0.11350E-03   -0.76124E-05  3854   0.329E-02    0.202E-01
RMM:   5    -0.341796942193E+03    0.15051E-03   -0.16305E-05  3481   0.153E-02    0.613E-02
RMM:   6    -0.341796948820E+03   -0.66264E-05   -0.51640E-06  2728   0.745E-03
 136 F= -.34179695E+03 E0= -.34178855E+03  d E =-.410733E-05
 curvature:  -0.20 expect dE=-0.513E-04 dE for cont linesearch -0.409E-05
 ZBRENT: increasing intervall
 opt :   0.3899  next Energy=  -341.796958 (dE=-0.132E-04)
 bond charge predicted
       N       E                     dE             d eps       ncg     rms          rms(c)
DAV:   1    -0.341796930087E+03    0.12107E-04   -0.17878E-02  7488   0.316E-01    0.390E-02
RMM:   2    -0.341798723629E+03   -0.17935E-02   -0.58592E-04  5668   0.593E-02    0.763E-01
RMM:   3    -0.341797033371E+03    0.16903E-02   -0.74306E-05  3851   0.330E-02    0.218E-01
RMM:   4    -0.341797116130E+03   -0.82759E-04   -0.32639E-05  3732   0.188E-02
 137 F= -.34179712E+03 E0= -.34178876E+03  d E =-.171417E-03
 curvature:  -0.46 expect dE=-0.843E-03 dE for cont linesearch -0.285E-04
 ZBRENT: bracketing found
 ZBRENT: interpolating
 opt :   0.2413  next Energy=  -341.796954 (dE=-0.902E-05)
 bond charge predicted
       N       E                     dE             d eps       ncg     rms          rms(c)
DAV:   1    -0.341797049683E+03   -0.16312E-04   -0.73473E-03  7416   0.204E-01    0.230E-01
RMM:   2    -0.341911707698E+03   -0.11466E+00   -0.96932E-03  7875   0.153E-01    0.607E+00
RMM:   3    -0.341799217824E+03    0.11249E+00   -0.72329E-03  7375   0.182E-01    0.716E-01
RMM:   4    -0.341797298636E+03    0.19192E-02   -0.12812E-03  6555   0.116E-01    0.305E-01
RMM:   5    -0.341797525177E+03   -0.22654E-03   -0.20023E-04  4374   0.411E-02    0.330E-01
RMM:   6    -0.341796960526E+03    0.56465E-03   -0.77031E-05  3872   0.286E-02    0.562E-02
RMM:   7    -0.341796958144E+03    0.23825E-05   -0.24864E-05  3551   0.153E-02
 138 F= -.34179696E+03 E0= -.34178856E+03  d E =-.134311E-04
 curvature:  -0.08 expect dE=-0.228E-04 dE for cont linesearch -0.368E-06
 trial: gam= 0.83905 g(F)=  0.290E-03 g(S)=  0.000E+00 ort = 0.567E-04 (trialstep = 0.641E-01)
 search vector abs. value=  0.869E-03
 bond charge predicted
       N       E                     dE             d eps       ncg     rms          rms(c)
DAV:   1    -0.341796978352E+03   -0.17826E-04   -0.17248E-03  7120   0.980E-02    0.491E-02
RMM:   2    -0.341800977586E+03   -0.39992E-02   -0.35159E-04  5043   0.353E-02    0.115E+00
RMM:   3    -0.341797060950E+03    0.39166E-02   -0.25843E-04  4497   0.453E-02    0.261E-01
RMM:   4    -0.341797031494E+03    0.29456E-04   -0.69414E-05  3784   0.330E-02
 139 F= -.34179703E+03 E0= -.34178863E+03  d E =-.733506E-04
 trial-energy change:   -0.000073  1 .order   -0.000018   -0.000022   -0.000014
 step:   0.1751(harm=  0.1751)  dis= 0.00044  next Energy=  -341.796988 (dE=-0.296E-04)
 bond charge predicted
       N       E                     dE             d eps       ncg     rms          rms(c)
DAV:   1    -0.341797016133E+03    0.44817E-04   -0.55741E-03  7392   0.178E-01    0.827E-02
RMM:   2    -0.341821478320E+03   -0.24462E-01   -0.20131E-03  7508   0.755E-02    0.265E+00
RMM:   3    -0.341797535113E+03    0.23943E-01   -0.10461E-03  6683   0.785E-02    0.332E-01
RMM:   4    -0.341796886568E+03    0.64855E-03   -0.28124E-04  4673   0.522E-02    0.593E-02
RMM:   5    -0.341797036136E+03   -0.14957E-03   -0.62262E-05  3764   0.258E-02    0.124E-01
RMM:   6    -0.341796999657E+03    0.36479E-04   -0.29044E-05  3568   0.157E-02
 140 F= -.34179700E+03 E0= -.34178854E+03  d E =-.415132E-04
 curvature:  -0.23 expect dE=-0.494E-04 dE for cont linesearch -0.100E-05
 ZBRENT: extrapolating
 opt :   0.2205  next Energy=  -341.797001 (dE=-0.429E-04)
 bond charge predicted
       N       E                     dE             d eps       ncg     rms          rms(c)
DAV:   1    -0.341797007793E+03    0.28343E-04   -0.88327E-04  7248   0.701E-02    0.615E-02
RMM:   2    -0.341803129043E+03   -0.61213E-02   -0.57058E-04  5694   0.387E-02    0.141E+00
RMM:   3    -0.341797072870E+03    0.60562E-02   -0.38515E-04  5153   0.506E-02    0.240E-01
RMM:   4    -0.341797045725E+03    0.27145E-04   -0.11017E-04  3872   0.385E-02
 141 F= -.34179705E+03 E0= -.34178863E+03  d E =-.875818E-04
 curvature:  -0.32 expect dE=-0.168E-03 dE for cont linesearch -0.182E-05
 ZBRENT: bracketing found
 ZBRENT: interpolating
 opt :   0.1964  next Energy=  -341.797000 (dE=-0.422E-04)
 bond charge predicted
       N       E                     dE             d eps       ncg     rms          rms(c)
DAV:   1    -0.341797029623E+03    0.43247E-04   -0.30677E-04  6376   0.478E-02    0.100E-01
RMM:   2    -0.341812200143E+03   -0.15171E-01   -0.15201E-03  6856   0.610E-02    0.226E+00
RMM:   3    -0.341797618595E+03    0.14582E-01   -0.11199E-03  6680   0.741E-02    0.441E-01
RMM:   4    -0.341797016552E+03    0.60204E-03   -0.25296E-04  4502   0.530E-02    0.106E-01
RMM:   5    -0.341797025854E+03   -0.93021E-05   -0.65608E-05  3802   0.243E-02
 142 F= -.34179703E+03 E0= -.34178854E+03  d E =-.677100E-04
 curvature:  -0.11 expect dE=-0.172E-04 dE for cont linesearch -0.273E-05
 ZBRENT: interpolating
 opt :   0.2125  next Energy=  -341.797046 (dE=-0.879E-04)
 bond charge predicted
       N       E                     dE             d eps       ncg     rms          rms(c)
DAV:   1    -0.341797048822E+03   -0.32271E-04   -0.37999E-04  4680   0.631E-02    0.102E-01
RMM:   2    -0.341830911223E+03   -0.33862E-01   -0.24249E-03  7552   0.812E-02    0.310E+00
RMM:   3    -0.341797417696E+03    0.33494E-01   -0.15689E-03  7008   0.923E-02    0.287E-01
RMM:   4    -0.341796988671E+03    0.42903E-03   -0.44824E-04  5495   0.600E-02    0.137E-01
RMM:   5    -0.341797025788E+03   -0.37117E-04   -0.87775E-05  3876   0.309E-02
 143 F= -.34179703E+03 E0= -.34178858E+03  d E =-.676440E-04
 curvature:  -0.01 expect dE=-0.164E-05 dE for cont linesearch -0.936E-07
 ZBRENT: interpolating
 opt :   0.2168  next Energy=  -341.797046 (dE=-0.877E-04)
 bond charge predicted
       N       E                     dE             d eps       ncg     rms          rms(c)
DAV:   1    -0.341797006069E+03   -0.17398E-04   -0.89534E-05  3824   0.353E-02    0.467E-02
RMM:   2    -0.341799706797E+03   -0.27007E-02   -0.24625E-04  4636   0.288E-02    0.960E-01
RMM:   3    -0.341797127377E+03    0.25794E-02   -0.17762E-04  4127   0.400E-02    0.269E-01
RMM:   4    -0.341797020908E+03    0.10647E-03   -0.61189E-05  3727   0.291E-02    0.713E-02
RMM:   5    -0.341797006684E+03    0.14224E-04   -0.14432E-05  3249   0.124E-02
 144 F= -.34179701E+03 E0= -.34178862E+03  d E =-.485404E-04
 curvature:  -0.02 expect dE=-0.270E-05 dE for cont linesearch -0.110E-06
 ZBRENT: interpolating
 opt :   0.2187  next Energy=  -341.797046 (dE=-0.876E-04)
 bond charge predicted
       N       E                     dE             d eps       ncg     rms          rms(c)
DAV:   1    -0.341797007837E+03    0.13071E-04   -0.41718E-05  3744   0.227E-02    0.287E-02
RMM:   2    -0.341798761151E+03   -0.17533E-02   -0.97746E-05  3990   0.206E-02    0.674E-01
RMM:   3    -0.341797015429E+03    0.17457E-02   -0.73316E-05  3793   0.297E-02    0.146E-01
RMM:   4    -0.341797015448E+03   -0.18954E-07   -0.38610E-05  3558   0.186E-02
 145 F= -.34179702E+03 E0= -.34178859E+03  d E =-.573048E-04
 curvature:  -0.01 expect dE=-0.304E-05 dE for cont linesearch -0.463E-07
 ZBRENT: interpolating
 opt :   0.2196  next Energy=  -341.797015 (dE=-0.573E-04)
 bond charge predicted
       N       E                     dE             d eps       ncg     rms          rms(c)
DAV:   1    -0.341797005141E+03    0.10288E-04   -0.10823E-04  3744   0.261E-02    0.367E-02
RMM:   2    -0.341799614265E+03   -0.26091E-02   -0.17845E-04  4355   0.239E-02    0.949E-01
RMM:   3    -0.341796967803E+03    0.26465E-02   -0.14781E-04  3985   0.392E-02    0.128E-01
RMM:   4    -0.341797013239E+03   -0.45436E-04   -0.47098E-05  3643   0.257E-02
 146 F= -.34179701E+03 E0= -.34178858E+03  d E =-.550959E-04
 curvature:  -0.01 expect dE=-0.904E-06 dE for cont linesearch -0.234E-07
 ZBRENT: bisectioning
 opt :   0.2200  next Energy=  -341.797013 (dE=-0.551E-04)
 bond charge predicted
       N       E                     dE             d eps       ncg     rms          rms(c)
DAV:   1    -0.341797003707E+03   -0.35904E-04   -0.41487E-05  3744   0.166E-02    0.191E-02
RMM:   2    -0.341797043813E+03   -0.40106E-04   -0.16048E-05  3148   0.119E-02
 147 F= -.34179704E+03 E0= -.34178857E+03  d E =-.856697E-04
 curvature:  -0.01 expect dE=-0.112E-05 dE for cont linesearch -0.125E-06
 ZBRENT: interpolating
 opt :   0.2203  next Energy=  -341.797046 (dE=-0.876E-04)
 bond charge predicted
       N       E                     dE             d eps       ncg     rms          rms(c)
DAV:   1    -0.341797072953E+03   -0.69246E-04   -0.42531E-04  3888   0.436E-02    0.154E-01
RMM:   2    -0.341858889529E+03   -0.61817E-01   -0.46844E-03  7546   0.101E-01    0.448E+00
RMM:   3    -0.341797525008E+03    0.61365E-01   -0.37011E-03  7156   0.134E-01    0.285E-01
RMM:   4    -0.341797706394E+03   -0.18139E-03   -0.80280E-04  6260   0.851E-02    0.403E-01
RMM:   5    -0.341797052778E+03    0.65362E-03   -0.12741E-04  4028   0.362E-02    0.128E-01
RMM:   6    -0.341796989799E+03    0.62979E-04   -0.37499E-05  3716   0.205E-02
 148 F= -.34179699E+03 E0= -.34178858E+03  d E =-.316555E-04
 curvature:  -0.00 expect dE=-0.451E-07 dE for cont linesearch -0.172E-08
 ZBRENT: interpolating
 opt :   0.2204  next Energy=  -341.797046 (dE=-0.876E-04)
 bond charge predicted
       N       E                     dE             d eps       ncg     rms          rms(c)
DAV:   1    -0.341797009869E+03    0.42909E-04   -0.29569E-05  3744   0.191E-02    0.552E-02
RMM:   2    -0.341802097388E+03   -0.50875E-02   -0.34489E-04  5102   0.311E-02    0.128E+00
RMM:   3    -0.341797111814E+03    0.49856E-02   -0.33254E-04  4899   0.486E-02    0.286E-01
RMM:   4    -0.341797067584E+03    0.44230E-04   -0.84264E-05  3812   0.352E-02
 149 F= -.34179707E+03 E0= -.34178867E+03  d E =-.109441E-03
 curvature:  -0.00 expect dE=-0.124E-06 dE for cont linesearch -0.889E-11
 trial: gam= 1.19409 g(F)=  0.271E-03 g(S)=  0.000E+00 ort = 0.410E-05 (trialstep = 0.545E-01)
 search vector abs. value=  0.152E-02
 bond charge predicted
       N       E                     dE             d eps       ncg     rms          rms(c)
DAV:   1    -0.341797025654E+03    0.86160E-04   -0.25778E-03  7152   0.125E-01    0.678E-02
RMM:   2    -0.341809118123E+03   -0.12092E-01   -0.10503E-03  6995   0.566E-02    0.180E+00
RMM:   3    -0.341797315258E+03    0.11803E-01   -0.52386E-04  5682   0.559E-02    0.318E-01
RMM:   4    -0.341796971649E+03    0.34361E-03   -0.20159E-04  4222   0.450E-02    0.403E-02
RMM:   5    -0.341797017901E+03   -0.46251E-04   -0.48202E-05  3748   0.225E-02
 150 F= -.34179702E+03 E0= -.34178857E+03  d E =0.496837E-04
 trial-energy change:    0.000050  1 .order   -0.000013   -0.000015   -0.000011
 step:   0.2090(harm=  0.2090)  dis= 0.00072  next Energy=  -341.797096 (dE=-0.288E-04)
 bond charge predicted
       N       E                     dE             d eps       ncg     rms          rms(c)
DAV:   1    -0.341797002006E+03   -0.30356E-04   -0.17680E-02  7488   0.313E-01    0.333E-02
RMM:   2    -0.341797816873E+03   -0.81487E-03   -0.46010E-04  5118   0.547E-02    0.558E-01
RMM:   3    -0.341797026272E+03    0.79060E-03   -0.67407E-05  3768   0.303E-02    0.910E-02
RMM:   4    -0.341797058365E+03   -0.32094E-04   -0.23438E-05  3713   0.176E-02
 151 F= -.34179706E+03 E0= -.34178865E+03  d E =0.921901E-05
 curvature:  -0.58 expect dE=-0.347E-03 dE for cont linesearch -0.785E-09
 trial: gam= 2.10561 g(F)=  0.602E-03 g(S)=  0.000E+00 ort = 0.144E-05 (trialstep = 0.177E-01)
 search vector abs. value=  0.734E-02
 bond charge predicted
       N       E                     dE             d eps       ncg     rms          rms(c)
DAV:   1    -0.341797063895E+03   -0.37623E-04   -0.11526E-03  7120   0.807E-02    0.104E-01
RMM:   2    -0.341811963404E+03   -0.14900E-01   -0.14761E-03  6828   0.603E-02    0.235E+00
RMM:   3    -0.341797876905E+03    0.14086E-01   -0.12649E-03  6826   0.769E-02    0.493E-01
RMM:   4    -0.341797068889E+03    0.80802E-03   -0.22010E-04  4410   0.540E-02    0.426E-02
RMM:   5    -0.341797249930E+03   -0.18104E-03   -0.50531E-05  3787   0.219E-02    0.216E-01
RMM:   6    -0.341797080365E+03    0.16956E-03   -0.12353E-05  3224   0.124E-02    0.107E-01
RMM:   7    -0.341797040970E+03    0.39395E-04   -0.69523E-06  2207   0.674E-03
 152 F= -.34179704E+03 E0= -.34178861E+03  d E =0.173953E-04
 ZBRENT: can't locate minimum, use default step
 trial-energy change:    0.000017  1 .order   -0.000010   -0.000011   -0.000009
 step:   0.0707(harm=  0.0948)  dis= 0.00051  next Energy=  -341.797087 (dE=-0.287E-04)
 bond charge predicted
       N       E                     dE             d eps       ncg     rms          rms(c)
DAV:   1    -0.341797050118E+03    0.30247E-04   -0.10091E-02  7440   0.235E-01    0.402E-02
RMM:   2    -0.341800334334E+03   -0.32842E-02   -0.44223E-04  5164   0.471E-02    0.107E+00
RMM:   3    -0.341796990779E+03    0.33436E-02   -0.14927E-04  3978   0.405E-02    0.711E-02
RMM:   4    -0.341797088837E+03   -0.98057E-04   -0.61112E-05  3775   0.267E-02
 153 F= -.34179709E+03 E0= -.34178868E+03  d E =-.304713E-04
 curvature:  -0.52 expect dE=-0.158E-03 dE for cont linesearch -0.149E-06
 trial: gam= 0.55927 g(F)=  0.305E-03 g(S)=  0.000E+00 ort = 0.459E-04 (trialstep = 0.283E-01)
 search vector abs. value=  0.265E-02
 bond charge predicted
       N       E                     dE             d eps       ncg     rms          rms(c)
DAV:   1    -0.341797066446E+03   -0.75667E-04   -0.12311E-03  7088   0.856E-02    0.222E-02
RMM:   2    -0.341797169197E+03   -0.10275E-03   -0.61417E-05  3718   0.204E-02    0.181E-01
RMM:   3    -0.341797092871E+03    0.76327E-04   -0.13374E-05  3480   0.129E-02
 154 F= -.34179709E+03 E0= -.34178866E+03  d E =-.403426E-05
 ZBRENT: can't locate minimum, use default step
 trial-energy change:   -0.000004  1 .order   -0.000009   -0.000009   -0.000008
 step:   0.1131(harm=  0.1855)  dis= 0.00046  next Energy=  -341.797120 (dE=-0.307E-04)
 bond charge predicted
       N       E                     dE             d eps       ncg     rms          rms(c)
DAV:   1    -0.341797203471E+03   -0.34274E-04   -0.99249E-03  7416   0.233E-01    0.198E-01
RMM:   2    -0.341903693534E+03   -0.10649E+00   -0.85391E-03  7816   0.140E-01    0.565E+00
RMM:   3    -0.341798107164E+03    0.10559E+00   -0.61091E-03  7250   0.165E-01    0.336E-01
RMM:   4    -0.341797492960E+03    0.61420E-03   -0.11695E-03  6557   0.993E-02    0.348E-01
RMM:   5    -0.341797173326E+03    0.31963E-03   -0.13897E-04  4061   0.399E-02    0.171E-01
RMM:   6    -0.341797140516E+03    0.32809E-04   -0.46442E-05  3854   0.213E-02
 155 F= -.34179714E+03 E0= -.34178870E+03  d E =-.516795E-04
 curvature:  -0.59 expect dE=-0.178E-03 dE for cont linesearch -0.213E-04
 ZBRENT: increasing intervall
 opt :   0.2827  next Energy=  -341.797198 (dE=-0.109E-03)
 bond charge predicted
       N       E                     dE             d eps       ncg     rms          rms(c)
DAV:   1    -0.341797082969E+03    0.90357E-04   -0.37648E-02  7496   0.452E-01    0.713E-02
RMM:   2    -0.341807966591E+03   -0.10884E-01   -0.17342E-03  7376   0.900E-02    0.180E+00
RMM:   3    -0.341797217348E+03    0.10749E-01   -0.50146E-04  5622   0.602E-02    0.199E-01
RMM:   4    -0.341797117205E+03    0.10014E-03   -0.17999E-04  4153   0.437E-02    0.877E-02
RMM:   5    -0.341797167942E+03   -0.50738E-04   -0.56202E-05  3853   0.235E-02
 156 F= -.34179717E+03 E0= -.34178865E+03  d E =-.791056E-04
 curvature:  -1.59 expect dE=-0.411E-03 dE for cont linesearch -0.236E-04
 ZBRENT: increasing intervall
 opt :   0.6220  next Energy=  -341.797197 (dE=-0.109E-03)
 bond charge predicted
       N       E                     dE             d eps       ncg     rms          rms(c)
DAV:   1    -0.341796898331E+03    0.21887E-03   -0.15004E-01  7488   0.900E-01    0.670E-02
RMM:   2    -0.341797370820E+03   -0.47249E-03   -0.31580E-03  7103   0.142E-01    0.280E-01
RMM:   3    -0.341797633355E+03   -0.26254E-03   -0.19157E-04  4233   0.418E-02    0.386E-01
RMM:   4    -0.341797220749E+03    0.41261E-03   -0.74610E-05  3892   0.281E-02    0.158E-01
RMM:   5    -0.341797217981E+03    0.27687E-05   -0.40049E-05  3714   0.193E-02
 157 F= -.34179722E+03 E0= -.34178872E+03  d E =-.129144E-03
 curvature:  -1.98 expect dE=-0.120E-02 dE for cont linesearch -0.322E-05
 trial: gam= 1.55255 g(F)=  0.606E-03 g(S)=  0.000E+00 ort = 0.657E-04 (trialstep = 0.541E-01)
 search vector abs. value=  0.721E-02
 bond charge predicted
       N       E                     dE             d eps       ncg     rms          rms(c)
DAV:   1    -0.341797257402E+03   -0.36653E-04   -0.10867E-02  7440   0.246E-01    0.125E-01
RMM:   2    -0.341841602497E+03   -0.44345E-01   -0.34805E-03  7656   0.977E-02    0.359E+00
RMM:   3    -0.341797937440E+03    0.43665E-01   -0.22916E-03  7083   0.108E-01    0.409E-01
RMM:   4    -0.341797287886E+03    0.64955E-03   -0.57682E-04  5825   0.726E-02    0.212E-01
RMM:   5    -0.341797257416E+03    0.30470E-04   -0.94133E-05  3852   0.313E-02
 158 F= -.34179726E+03 E0= -.34178874E+03  d E =-.394349E-04
 ZBRENT: can't locate minimum, use default step
 trial-energy change:   -0.000039  1 .order   -0.000035   -0.000038   -0.000032
 step:   0.2165(harm=  0.3508)  dis= 0.00140  next Energy=  -341.797342 (dE=-0.124E-03)
 bond charge predicted
       N       E                     dE             d eps       ncg     rms          rms(c)
DAV:   1    -0.341797076717E+03    0.21117E-03   -0.94448E-02  7488   0.715E-01    0.807E-02
RMM:   2    -0.341799009636E+03   -0.19329E-02   -0.25407E-03  6957   0.119E-01    0.879E-01
RMM:   3    -0.341797959184E+03    0.10505E-02   -0.26289E-04  4543   0.472E-02    0.390E-01
RMM:   4    -0.341797692224E+03    0.26696E-03   -0.15269E-04  4048   0.387E-02    0.397E-01
RMM:   5    -0.341797409740E+03    0.28248E-03   -0.77106E-05  3938   0.276E-02    0.231E-01
RMM:   6    -0.341797246278E+03    0.16346E-03   -0.33256E-05  3398   0.155E-02    0.127E-01
RMM:   7    -0.341797254608E+03   -0.83298E-05   -0.16603E-05  3235   0.119E-02
 159 F= -.34179725E+03 E0= -.34178866E+03  d E =-.366272E-04
 curvature:  -1.42 expect dE=-0.100E-02 dE for cont linesearch -0.139E-05
 trial: gam= 0.63390 g(F)=  0.705E-03 g(S)=  0.000E+00 ort = 0.840E-04 (trialstep = 0.866E-01)
 search vector abs. value=  0.371E-02
 bond charge predicted
       N       E                     dE             d eps       ncg     rms          rms(c)
DAV:   1    -0.341797303669E+03   -0.57391E-04   -0.13916E-02  7464   0.280E-01    0.796E-02
RMM:   2    -0.341813812819E+03   -0.16509E-01   -0.15744E-03  7507   0.759E-02    0.219E+00
RMM:   3    -0.341797605440E+03    0.16207E-01   -0.79583E-04  6324   0.681E-02    0.283E-01
RMM:   4    -0.341797261992E+03    0.34345E-03   -0.22397E-04  4376   0.490E-02    0.721E-02
RMM:   5    -0.341797339372E+03   -0.77380E-04   -0.65222E-05  3779   0.258E-02
 160 F= -.34179734E+03 E0= -.34178878E+03  d E =-.847641E-04
 trial-energy change:   -0.000085  1 .order   -0.000057   -0.000066   -0.000047
 step:   0.3123(harm=  0.3123)  dis= 0.00133  next Energy=  -341.797373 (dE=-0.118E-03)
 bond charge predicted
       N       E                     dE             d eps       ncg     rms          rms(c)
DAV:   1    -0.341797180648E+03    0.81345E-04   -0.94903E-02  7488   0.727E-01    0.772E-02
RMM:   2    -0.341799435589E+03   -0.22549E-02   -0.24715E-03  7054   0.125E-01    0.906E-01
RMM:   3    -0.341798012503E+03    0.14231E-02   -0.27752E-04  4622   0.467E-02    0.473E-01
RMM:   4    -0.341797421414E+03    0.59109E-03   -0.12068E-04  3949   0.385E-02    0.163E-01
RMM:   5    -0.341797572865E+03   -0.15145E-03   -0.55239E-05  3891   0.212E-02    0.237E-01
RMM:   6    -0.341797364915E+03    0.20795E-03   -0.22805E-05  3500   0.148E-02    0.988E-02
RMM:   7    -0.341797383258E+03   -0.18344E-04   -0.14449E-05  3224   0.104E-02
 161 F= -.34179738E+03 E0= -.34178877E+03  d E =-.128650E-03
 curvature:  -0.76 expect dE=-0.301E-03 dE for cont linesearch -0.420E-05
 ZBRENT: extrapolating
 opt :   0.3919  next Energy=  -341.797389 (dE=-0.134E-03)
 bond charge predicted
       N       E                     dE             d eps       ncg     rms          rms(c)
DAV:   1    -0.341797383077E+03   -0.18163E-04   -0.11936E-02  7432   0.259E-01    0.104E-01
RMM:   2    -0.341829264747E+03   -0.31882E-01   -0.27276E-03  7587   0.873E-02    0.322E+00
RMM:   3    -0.341797534031E+03    0.31731E-01   -0.16283E-03  6962   0.956E-02    0.170E-01
RMM:   4    -0.341797283620E+03    0.25041E-03   -0.37797E-04  5069   0.608E-02    0.118E-01
RMM:   5    -0.341797448629E+03   -0.16501E-03   -0.88205E-05  3911   0.304E-02    0.132E-01
RMM:   6    -0.341797368239E+03    0.80389E-04   -0.32368E-05  3718   0.193E-02
 162 F= -.34179737E+03 E0= -.34178871E+03  d E =-.113631E-03
 curvature:  -1.03 expect dE=-0.647E-03 dE for cont linesearch -0.154E-06
 trial: gam= 0.93307 g(F)=  0.626E-03 g(S)=  0.000E+00 ort =-0.235E-04 (trialstep = 0.144E+00)
 search vector abs. value=  0.381E-02
 bond charge predicted
       N       E                     dE             d eps       ncg     rms          rms(c)
DAV:   1    -0.341797376420E+03    0.72209E-04   -0.39448E-02  7488   0.463E-01    0.106E-01
RMM:   2    -0.341813368318E+03   -0.15992E-01   -0.22555E-03  7506   0.945E-02    0.233E+00
RMM:   3    -0.341798119686E+03    0.15249E-01   -0.12232E-03  6825   0.795E-02    0.510E-01
RMM:   4    -0.341797509493E+03    0.61019E-03   -0.21299E-04  4387   0.543E-02    0.125E-01
RMM:   5    -0.341797503306E+03    0.61876E-05   -0.60846E-05  3832   0.253E-02
 163 F= -.34179750E+03 E0= -.34178877E+03  d E =-.135066E-03
 trial-energy change:   -0.000135  1 .order   -0.000071   -0.000087   -0.000055
 step:   0.3918(harm=  0.3918)  dis= 0.00162  next Energy=  -341.797487 (dE=-0.118E-03)
 bond charge predicted
       N       E                     dE             d eps       ncg     rms          rms(c)
DAV:   1    -0.341797262246E+03    0.24725E-03   -0.11795E-01  7488   0.801E-01    0.124E-01
RMM:   2    -0.341826257311E+03   -0.28995E-01   -0.45280E-03  7633   0.148E-01    0.301E+00
RMM:   3    -0.341797583093E+03    0.28674E-01   -0.16468E-03  6993   0.988E-02    0.242E-01
RMM:   4    -0.341798001175E+03   -0.41808E-03   -0.44018E-04  5475   0.638E-02    0.373E-01
RMM:   5    -0.341797639673E+03    0.36150E-03   -0.83326E-05  3978   0.317E-02    0.230E-01
RMM:   6    -0.341797650886E+03   -0.11212E-04   -0.51427E-05  3897   0.215E-02
 164 F= -.34179765E+03 E0= -.34178901E+03  d E =-.282646E-03
 curvature:  -1.23 expect dE=-0.173E-02 dE for cont linesearch -0.350E-08
 trial: gam= 2.11599 g(F)=  0.140E-02 g(S)=  0.000E+00 ort = 0.329E-05 (trialstep = 0.399E-01)
 search vector abs. value=  0.185E-01
 bond charge predicted
       N       E                     dE             d eps       ncg     rms          rms(c)
DAV:   1    -0.341797592998E+03    0.46675E-04   -0.14672E-02  7472   0.282E-01    0.190E-01
RMM:   2    -0.341911808940E+03   -0.11422E+00   -0.88745E-03  7951   0.153E-01    0.563E+00
RMM:   3    -0.341799710298E+03    0.11210E+00   -0.51119E-03  7175   0.160E-01    0.565E-01
RMM:   4    -0.341797379392E+03    0.23309E-02   -0.14068E-03  6936   0.100E-01    0.193E-01
RMM:   5    -0.341797501269E+03   -0.12188E-03   -0.13424E-04  4154   0.393E-02    0.114E-01
RMM:   6    -0.341797503544E+03   -0.22751E-05   -0.44976E-05  3836   0.237E-02
 165 F= -.34179750E+03 E0= -.34178885E+03  d E =0.147341E-03
 trial-energy change:    0.000147  1 .order   -0.000036   -0.000056   -0.000017
 step:   0.0566(harm=  0.0566)  dis= 0.00053  next Energy=  -341.797691 (dE=-0.400E-04)
 bond charge predicted
       N       E                     dE             d eps       ncg     rms          rms(c)
DAV:   1    -0.341797475532E+03    0.25738E-04   -0.27128E-03  7520   0.123E-01    0.461E-02
RMM:   2    -0.341797760719E+03   -0.28519E-03   -0.16265E-04  4281   0.299E-02    0.265E-01
RMM:   3    -0.341797476303E+03    0.28442E-03   -0.78328E-05  3794   0.288E-02    0.530E-02
RMM:   4    -0.341797567275E+03   -0.90972E-04   -0.19420E-05  3392   0.132E-02
 166 F= -.34179757E+03 E0= -.34178895E+03  d E =0.836108E-04
 curvature:  -0.37 expect dE=-0.485E-03 dE for cont linesearch -0.111E-05
 trial: gam= 0.85683 g(F)=  0.131E-02 g(S)=  0.000E+00 ort =-0.235E-03 (trialstep = 0.432E-01)
 search vector abs. value=  0.145E-01
 bond charge predicted
       N       E                     dE             d eps       ncg     rms          rms(c)
DAV:   1    -0.341797524827E+03   -0.48524E-04   -0.13740E-02  7464   0.273E-01    0.143E-01
RMM:   2    -0.341837678070E+03   -0.40153E-01   -0.37681E-03  7640   0.998E-02    0.376E+00
RMM:   3    -0.341798307035E+03    0.39371E-01   -0.27731E-03  7126   0.115E-01    0.431E-01
RMM:   4    -0.341797521754E+03    0.78528E-03   -0.43592E-04  5134   0.748E-02    0.903E-02
RMM:   5    -0.341797580240E+03   -0.58487E-04   -0.63481E-05  3813   0.270E-02
 167 F= -.34179758E+03 E0= -.34178894E+03  d E =-.129653E-04
 trial-energy change:   -0.000013  1 .order   -0.000032   -0.000048   -0.000017
 step:   0.0664(harm=  0.0664)  dis= 0.00054  next Energy=  -341.797604 (dE=-0.368E-04)
 bond charge predicted
       N       E                     dE             d eps       ncg     rms          rms(c)
DAV:   1    -0.341797513602E+03    0.81516E-05   -0.41228E-03  7096   0.151E-01    0.462E-02
RMM:   2    -0.341797648534E+03   -0.13493E-03   -0.16204E-04  4078   0.329E-02    0.213E-01
RMM:   3    -0.341797584587E+03    0.63948E-04   -0.62616E-05  3788   0.258E-02
 168 F= -.34179758E+03 E0= -.34178890E+03  d E =-.173114E-04
 curvature:  -0.43 expect dE=-0.318E-03 dE for cont linesearch -0.144E-05
 ZBRENT: increasing intervall
 opt :   0.1128  next Energy=  -341.797587 (dE=-0.197E-04)
 bond charge predicted
       N       E                     dE             d eps       ncg     rms          rms(c)
DAV:   1    -0.341797595978E+03    0.52556E-04   -0.16532E-02  7488   0.300E-01    0.204E-01
RMM:   2    -0.341876720345E+03   -0.79124E-01   -0.66588E-03  7802   0.130E-01    0.502E+00
RMM:   3    -0.341799723034E+03    0.76997E-01   -0.54823E-03  7247   0.152E-01    0.742E-01
RMM:   4    -0.341797853020E+03    0.18700E-02   -0.87793E-04  6070   0.967E-02    0.338E-01
RMM:   5    -0.341797761031E+03    0.91989E-04   -0.16347E-04  4208   0.345E-02
 169 F= -.34179776E+03 E0= -.34178886E+03  d E =-.193756E-03
 curvature:  -0.71 expect dE=-0.544E-03 dE for cont linesearch -0.479E-06
 trial: gam= 0.81495 g(F)=  0.762E-03 g(S)=  0.000E+00 ort = 0.985E-04 (trialstep = 0.571E-01)
 search vector abs. value=  0.105E-01
 bond charge predicted
       N       E                     dE             d eps       ncg     rms          rms(c)
DAV:   1    -0.341797781309E+03    0.71711E-04   -0.18696E-02  7472   0.334E-01    0.304E-01
RMM:   2    -0.342043020888E+03   -0.24524E+00   -0.19956E-02  7904   0.216E-01    0.828E+00
RMM:   3    -0.341801012683E+03    0.24201E+00   -0.14127E-02  7704   0.240E-01    0.524E-01
RMM:   4    -0.341797691672E+03    0.33210E-02   -0.22067E-03  6870   0.138E-01    0.367E-01
RMM:   5    -0.341797770615E+03   -0.78943E-04   -0.40024E-04  5116   0.478E-02
 170 F= -.34179777E+03 E0= -.34178901E+03  d E =-.958422E-05
 ZBRENT: can't locate minimum, use default step
 trial-energy change:   -0.000010  1 .order   -0.000048   -0.000048   -0.000049
 step:   0.2286(harm=  0.2286)  dis= 0.00164  next Energy=  -341.797958 (dE=-0.197E-03)
 bond charge predicted
       N       E                     dE             d eps       ncg     rms          rms(c)
DAV:   1    -0.341797606004E+03    0.85668E-04   -0.15886E-01  7488   0.935E-01    0.281E-01
RMM:   2    -0.342104789459E+03   -0.30718E+00   -0.26758E-02  7896   0.280E-01    0.889E+00
RMM:   3    -0.341803673471E+03    0.30112E+00   -0.12805E-02  7663   0.250E-01    0.666E-01
RMM:   4    -0.341797303795E+03    0.63697E-02   -0.30541E-03  7430   0.141E-01    0.363E-01
RMM:   5    -0.341797591188E+03   -0.28739E-03   -0.73331E-04  5893   0.640E-02    0.181E-01
RMM:   6    -0.341797606441E+03   -0.15253E-04   -0.14740E-04  4199   0.369E-02
 171 F= -.34179761E+03 E0= -.34178887E+03  d E =0.154590E-03
 curvature:  -2.16 expect dE=-0.176E-02 dE for cont linesearch -0.176E-04
 ZBRENT: interpolating
 opt :   0.1847  next Energy=  -341.797613 (dE= 0.148E-03)
 bond charge predicted
       N       E                     dE             d eps       ncg     rms          rms(c)
DAV:   1    -0.341797556673E+03    0.34515E-04   -0.10789E-02  7920   0.247E-01    0.150E-01
RMM:   2    -0.341812453381E+03   -0.14897E-01   -0.21150E-03  7270   0.778E-02    0.245E+00
RMM:   3    -0.341802184677E+03    0.10269E-01   -0.20291E-03  7085   0.899E-02    0.114E+00
RMM:   4    -0.341797659256E+03    0.45254E-02   -0.50457E-04  5480   0.730E-02    0.149E-01
RMM:   5    -0.341797651809E+03    0.74469E-05   -0.90148E-05  3940   0.282E-02
 172 F= -.34179765E+03 E0= -.34178914E+03  d E =0.109223E-03
 curvature:  -0.79 expect dE=-0.485E-03 dE for cont linesearch -0.441E-05
 ZBRENT: bisectioning
 opt :   0.1209  next Energy=  -341.797665 (dE= 0.961E-04)
 bond charge predicted
       N       E                     dE             d eps       ncg     rms          rms(c)
DAV:   1    -0.341797540507E+03    0.11875E-03   -0.22341E-02  7488   0.353E-01    0.102E-01
RMM:   2    -0.341811227902E+03   -0.13687E-01   -0.17664E-03  7385   0.831E-02    0.217E+00
RMM:   3    -0.341798181357E+03    0.13047E-01   -0.10141E-03  6569   0.720E-02    0.522E-01
RMM:   4    -0.341797592424E+03    0.58893E-03   -0.22205E-04  4380   0.535E-02    0.750E-02
RMM:   5    -0.341797612510E+03   -0.20085E-04   -0.64010E-05  3796   0.255E-02
 173 F= -.34179761E+03 E0= -.34178902E+03  d E =0.148521E-03
 curvature:  -2.35 expect dE=-0.941E-03 dE for cont linesearch -0.112E-06
 trial: gam= 0.28624 g(F)=  0.400E-03 g(S)=  0.000E+00 ort =-0.224E-04 (trialstep = 0.699E-01)
 search vector abs. value=  0.125E-02
 bond charge predicted
       N       E                     dE             d eps       ncg     rms          rms(c)
DAV:   1    -0.341797620750E+03   -0.28325E-04   -0.35263E-03  7200   0.150E-01    0.100E-01
RMM:   2    -0.341822393339E+03   -0.24773E-01   -0.19259E-03  7377   0.746E-02    0.264E+00
RMM:   3    -0.341798102117E+03    0.24291E-01   -0.12766E-03  6896   0.814E-02    0.402E-01
RMM:   4    -0.341797695406E+03    0.40671E-03   -0.40837E-04  5273   0.588E-02    0.196E-01
RMM:   5    -0.341797602272E+03    0.93134E-04   -0.87252E-05  3870   0.297E-02
 174 F= -.34179760E+03 E0= -.34178890E+03  d E =0.102379E-04
 ZBRENT: can't locate minimum, use default step
 trial-energy change:    0.000010  1 .order   -0.000025   -0.000028   -0.000022
 step:   0.2796(harm=  0.3648)  dis= 0.00069  next Energy=  -341.797684 (dE=-0.718E-04)
 bond charge predicted
       N       E                     dE             d eps       ncg     rms          rms(c)
DAV:   1    -0.341797586713E+03    0.10869E-03   -0.27393E-02  7488   0.387E-01    0.595E-02
RMM:   2    -0.341803463155E+03   -0.58764E-02   -0.10720E-03  6913   0.759E-02    0.124E+00
RMM:   3    -0.341797778212E+03    0.56849E-02   -0.27138E-04  4630   0.459E-02    0.275E-01
RMM:   4    -0.341797644283E+03    0.13393E-03   -0.14451E-04  3969   0.394E-02    0.949E-02
RMM:   5    -0.341797634473E+03    0.98103E-05   -0.46818E-05  3762   0.210E-02
 175 F= -.34179763E+03 E0= -.34178894E+03  d E =-.219633E-04
 curvature:  -0.53 expect dE=-0.120E-03 dE for cont linesearch -0.421E-05
 ZBRENT: extrapolating
 opt :   0.3750  next Energy=  -341.797639 (dE=-0.267E-04)
 bond charge predicted
       N       E                     dE             d eps       ncg     rms          rms(c)
DAV:   1    -0.341797626749E+03    0.17535E-04   -0.56889E-03  7256   0.177E-01    0.376E-02
RMM:   2    -0.341799209668E+03   -0.15829E-02   -0.29175E-04  4606   0.363E-02    0.764E-01
RMM:   3    -0.341797641775E+03    0.15679E-02   -0.92130E-05  3883   0.314E-02    0.150E-01
RMM:   4    -0.341797638956E+03    0.28188E-05   -0.34325E-05  3710   0.214E-02
 176 F= -.34179764E+03 E0= -.34178895E+03  d E =-.264462E-04
 curvature:  -0.60 expect dE=-0.347E-03 dE for cont linesearch -0.148E-05
 trial: gam= 1.38892 g(F)=  0.580E-03 g(S)=  0.000E+00 ort =-0.555E-04 (trialstep = 0.577E-01)
 search vector abs. value=  0.284E-02
 bond charge predicted
       N       E                     dE             d eps       ncg     rms          rms(c)
DAV:   1    -0.341797672584E+03   -0.30809E-04   -0.46845E-03  7256   0.160E-01    0.958E-02
RMM:   2    -0.341824515944E+03   -0.26843E-01   -0.21659E-03  7462   0.764E-02    0.291E+00
RMM:   3    -0.341797841068E+03    0.26675E-01   -0.13466E-03  6897   0.858E-02    0.208E-01
RMM:   4    -0.341797594720E+03    0.24635E-03   -0.30604E-04  4837   0.553E-02    0.114E-01
RMM:   5    -0.341797749691E+03   -0.15497E-03   -0.61455E-05  3817   0.268E-02    0.176E-01
RMM:   6    -0.341797649863E+03    0.99828E-04   -0.24075E-05  3444   0.159E-02
 177 F= -.34179765E+03 E0= -.34178886E+03  d E =-.109065E-04
 trial-energy change:   -0.000011  1 .order   -0.000019   -0.000029   -0.000009
 step:   0.0850(harm=  0.0850)  dis= 0.00033  next Energy=  -341.797660 (dE=-0.213E-04)
 bond charge predicted
       N       E                     dE             d eps       ncg     rms          rms(c)
DAV:   1    -0.341797666688E+03    0.83003E-04   -0.10790E-03  7232   0.789E-02    0.101E-01
RMM:   2    -0.341809667394E+03   -0.12001E-01   -0.10870E-03  6580   0.520E-02    0.201E+00
RMM:   3    -0.341798867846E+03    0.10800E-01   -0.11097E-03  6758   0.709E-02    0.666E-01
RMM:   4    -0.341797932756E+03    0.93509E-03   -0.21094E-04  4414   0.523E-02    0.275E-01
RMM:   5    -0.341797666274E+03    0.26648E-03   -0.52928E-05  3764   0.229E-02    0.112E-01
RMM:   6    -0.341797694671E+03   -0.28397E-04   -0.18018E-05  3183   0.137E-02
 178 F= -.34179769E+03 E0= -.34178897E+03  d E =-.557149E-04
 curvature:  -0.24 expect dE=-0.104E-03 dE for cont linesearch -0.931E-07
 trial: gam= 0.64011 g(F)=  0.434E-03 g(S)=  0.000E+00 ort =-0.332E-04 (trialstep = 0.631E-01)
 search vector abs. value=  0.155E-02
 bond charge predicted
       N       E                     dE             d eps       ncg     rms          rms(c)
DAV:   1    -0.341797689731E+03   -0.23457E-04   -0.30722E-03  7128   0.134E-01    0.107E-01
RMM:   2    -0.341818237252E+03   -0.20548E-01   -0.17929E-03  7194   0.676E-02    0.265E+00
RMM:   3    -0.341798253398E+03    0.19984E-01   -0.15172E-03  7000   0.839E-02    0.447E-01
RMM:   4    -0.341797727367E+03    0.52603E-03   -0.23189E-04  4489   0.561E-02    0.110E-01
RMM:   5    -0.341797857838E+03   -0.13047E-03   -0.54296E-05  3861   0.238E-02    0.177E-01
RMM:   6    -0.341797671819E+03    0.18602E-03   -0.17793E-05  3263   0.141E-02    0.386E-02
RMM:   7    -0.341797675201E+03   -0.33811E-05   -0.57761E-06  2403   0.720E-03
 179 F= -.34179768E+03 E0= -.34178896E+03  d E =0.194704E-04
 trial-energy change:    0.000019  1 .order   -0.000022   -0.000026   -0.000018
 step:   0.1979(harm=  0.1979)  dis= 0.00058  next Energy=  -341.797735 (dE=-0.408E-04)
 bond charge predicted
       N       E                     dE             d eps       ncg     rms          rms(c)
DAV:   1    -0.341797670746E+03    0.10737E-05   -0.13907E-02  7488   0.281E-01    0.271E-02
RMM:   2    -0.341798291952E+03   -0.62121E-03   -0.33342E-04  4531   0.494E-02    0.483E-01
RMM:   3    -0.341797665532E+03    0.62642E-03   -0.55554E-05  3775   0.285E-02    0.479E-02
RMM:   4    -0.341797737911E+03   -0.72379E-04   -0.19270E-05  3717   0.155E-02
 180 F= -.34179774E+03 E0= -.34178898E+03  d E =-.432405E-04
 curvature:  -0.37 expect dE=-0.102E-03 dE for cont linesearch -0.937E-08
 trial: gam= 0.81102 g(F)=  0.274E-03 g(S)=  0.000E+00 ort = 0.625E-05 (trialstep = 0.901E-01)
 search vector abs. value=  0.131E-02
 bond charge predicted
       N       E                     dE             d eps       ncg     rms          rms(c)
DAV:   1    -0.341797712281E+03   -0.46749E-04   -0.52739E-03  7384   0.174E-01    0.911E-02
RMM:   2    -0.341811738068E+03   -0.14026E-01   -0.13584E-03  6950   0.638E-02    0.226E+00
RMM:   3    -0.341798008265E+03    0.13730E-01   -0.10381E-03  6562   0.722E-02    0.330E-01
RMM:   4    -0.341797735929E+03    0.27234E-03   -0.17882E-04  4189   0.500E-02    0.935E-02
RMM:   5    -0.341797836507E+03   -0.10058E-03   -0.31986E-05  3756   0.200E-02    0.172E-01
RMM:   6    -0.341797715061E+03    0.12145E-03   -0.10075E-05  3078   0.972E-03    0.857E-02
RMM:   7    -0.341797704776E+03    0.10286E-04   -0.66040E-06  2583   0.726E-03
 181 F= -.34179770E+03 E0= -.34178895E+03  d E =0.331358E-04
 trial-energy change:    0.000033  1 .order   -0.000015   -0.000025   -0.000005
 step:   0.1125(harm=  0.1125)  dis= 0.00032  next Energy=  -341.797754 (dE=-0.157E-04)
 bond charge predicted
       N       E                     dE             d eps       ncg     rms          rms(c)
srun: Job step aborted: Waiting up to 32 seconds for job step to finish.
slurmstepd: error: *** STEP 24467567.0 ON nid00726 CANCELLED AT 2019-09-14T13:49:49 ***
slurmstepd: error: *** JOB 24467567 ON nid00726 CANCELLED AT 2019-09-14T13:49:49 ***
srun: got SIGCONT
srun: forcing job termination
